*Heading
** Job name: Job-3d-torsion-beam Model name: Model-3
** Generated by: Abaqus/CAE 2022
*Preprint, echo=NO, model=NO, history=NO, contact=NO
**
** PARTS
**
*Part, name=Part-1
*Node
      1,          20.,          10.,         200.
      2,          20.,          45.,         200.
      3,          20.,          45.,           0.
      4,          20.,          10.,           0.
      5,          30.,          45.,         200.
      6,          30.,          45.,           0.
      7,          30.,          10.,           0.
      8,          30.,          10.,         200.
      9,          20.,          55.,         200.
     10,          20.,          55.,           0.
     11,          30.,          55.,         200.
     12,          30.,          55.,           0.
     13,           0.,          45.,         200.
     14,           0.,          45.,           0.
     15,           0.,          55.,         200.
     16,           0.,          55.,           0.
     17,          20.,           0.,           0.
     18,          20.,           0.,         200.
     19,           0.,           0.,         200.
     20,           0.,           0.,           0.
     21,           0.,          10.,         200.
     22,           0.,          10.,           0.
     23,          50.,          10.,         200.
     24,          50.,          10.,           0.
     25,          50.,           0.,         200.
     26,          50.,           0.,           0.
     27,          30.,           0.,           0.
     28,          30.,           0.,         200.
     29,          50.,          45.,         200.
     30,          50.,          45.,           0.
     31,          50.,          55.,           0.
     32,          50.,          55.,         200.
     33,          20.,          15.,         200.
     34,          20.,          20.,         200.
     35,          20.,          25.,         200.
     36,          20.,          30.,         200.
     37,          20.,          35.,         200.
     38,          20.,          40.,         200.
     39,          20.,          45.,         195.
     40,          20.,          45.,         190.
     41,          20.,          45.,         185.
     42,          20.,          45.,         180.
     43,          20.,          45.,         175.
     44,          20.,          45.,         170.
     45,          20.,          45.,         165.
     46,          20.,          45.,         160.
     47,          20.,          45.,         155.
     48,          20.,          45.,         150.
     49,          20.,          45.,         145.
     50,          20.,          45.,         140.
     51,          20.,          45.,         135.
     52,          20.,          45.,         130.
     53,          20.,          45.,         125.
     54,          20.,          45.,         120.
     55,          20.,          45.,         115.
     56,          20.,          45.,         110.
     57,          20.,          45.,         105.
     58,          20.,          45.,         100.
     59,          20.,          45.,          95.
     60,          20.,          45.,          90.
     61,          20.,          45.,          85.
     62,          20.,          45.,          80.
     63,          20.,          45.,          75.
     64,          20.,          45.,          70.
     65,          20.,          45.,          65.
     66,          20.,          45.,          60.
     67,          20.,          45.,          55.
     68,          20.,          45.,          50.
     69,          20.,          45.,          45.
     70,          20.,          45.,          40.
     71,          20.,          45.,          35.
     72,          20.,          45.,          30.
     73,          20.,          45.,          25.
     74,          20.,          45.,          20.
     75,          20.,          45.,          15.
     76,          20.,          45.,          10.
     77,          20.,          45.,           5.
     78,          20.,          40.,           0.
     79,          20.,          35.,           0.
     80,          20.,          30.,           0.
     81,          20.,          25.,           0.
     82,          20.,          20.,           0.
     83,          20.,          15.,           0.
     84,          20.,          10.,           5.
     85,          20.,          10.,          10.
     86,          20.,          10.,          15.
     87,          20.,          10.,          20.
     88,          20.,          10.,          25.
     89,          20.,          10.,          30.
     90,          20.,          10.,          35.
     91,          20.,          10.,          40.
     92,          20.,          10.,          45.
     93,          20.,          10.,          50.
     94,          20.,          10.,          55.
     95,          20.,          10.,          60.
     96,          20.,          10.,          65.
     97,          20.,          10.,          70.
     98,          20.,          10.,          75.
     99,          20.,          10.,          80.
    100,          20.,          10.,          85.
    101,          20.,          10.,          90.
    102,          20.,          10.,          95.
    103,          20.,          10.,         100.
    104,          20.,          10.,         105.
    105,          20.,          10.,         110.
    106,          20.,          10.,         115.
    107,          20.,          10.,         120.
    108,          20.,          10.,         125.
    109,          20.,          10.,         130.
    110,          20.,          10.,         135.
    111,          20.,          10.,         140.
    112,          20.,          10.,         145.
    113,          20.,          10.,         150.
    114,          20.,          10.,         155.
    115,          20.,          10.,         160.
    116,          20.,          10.,         165.
    117,          20.,          10.,         170.
    118,          20.,          10.,         175.
    119,          20.,          10.,         180.
    120,          20.,          10.,         185.
    121,          20.,          10.,         190.
    122,          20.,          10.,         195.
    123,          30.,          40.,         200.
    124,          30.,          35.,         200.
    125,          30.,          30.,         200.
    126,          30.,          25.,         200.
    127,          30.,          20.,         200.
    128,          30.,          15.,         200.
    129,          30.,          45.,           5.
    130,          30.,          45.,          10.
    131,          30.,          45.,          15.
    132,          30.,          45.,          20.
    133,          30.,          45.,          25.
    134,          30.,          45.,          30.
    135,          30.,          45.,          35.
    136,          30.,          45.,          40.
    137,          30.,          45.,          45.
    138,          30.,          45.,          50.
    139,          30.,          45.,          55.
    140,          30.,          45.,          60.
    141,          30.,          45.,          65.
    142,          30.,          45.,          70.
    143,          30.,          45.,          75.
    144,          30.,          45.,          80.
    145,          30.,          45.,          85.
    146,          30.,          45.,          90.
    147,          30.,          45.,          95.
    148,          30.,          45.,         100.
    149,          30.,          45.,         105.
    150,          30.,          45.,         110.
    151,          30.,          45.,         115.
    152,          30.,          45.,         120.
    153,          30.,          45.,         125.
    154,          30.,          45.,         130.
    155,          30.,          45.,         135.
    156,          30.,          45.,         140.
    157,          30.,          45.,         145.
    158,          30.,          45.,         150.
    159,          30.,          45.,         155.
    160,          30.,          45.,         160.
    161,          30.,          45.,         165.
    162,          30.,          45.,         170.
    163,          30.,          45.,         175.
    164,          30.,          45.,         180.
    165,          30.,          45.,         185.
    166,          30.,          45.,         190.
    167,          30.,          45.,         195.
    168,          30.,          15.,           0.
    169,          30.,          20.,           0.
    170,          30.,          25.,           0.
    171,          30.,          30.,           0.
    172,          30.,          35.,           0.
    173,          30.,          40.,           0.
    174,          30.,          10.,         195.
    175,          30.,          10.,         190.
    176,          30.,          10.,         185.
    177,          30.,          10.,         180.
    178,          30.,          10.,         175.
    179,          30.,          10.,         170.
    180,          30.,          10.,         165.
    181,          30.,          10.,         160.
    182,          30.,          10.,         155.
    183,          30.,          10.,         150.
    184,          30.,          10.,         145.
    185,          30.,          10.,         140.
    186,          30.,          10.,         135.
    187,          30.,          10.,         130.
    188,          30.,          10.,         125.
    189,          30.,          10.,         120.
    190,          30.,          10.,         115.
    191,          30.,          10.,         110.
    192,          30.,          10.,         105.
    193,          30.,          10.,         100.
    194,          30.,          10.,          95.
    195,          30.,          10.,          90.
    196,          30.,          10.,          85.
    197,          30.,          10.,          80.
    198,          30.,          10.,          75.
    199,          30.,          10.,          70.
    200,          30.,          10.,          65.
    201,          30.,          10.,          60.
    202,          30.,          10.,          55.
    203,          30.,          10.,          50.
    204,          30.,          10.,          45.
    205,          30.,          10.,          40.
    206,          30.,          10.,          35.
    207,          30.,          10.,          30.
    208,          30.,          10.,          25.
    209,          30.,          10.,          20.
    210,          30.,          10.,          15.
    211,          30.,          10.,          10.
    212,          30.,          10.,           5.
    213,          25.,          10.,           0.
    214,          25.,          10.,         200.
    215,          25.,          45.,           0.
    216,          25.,          45.,         200.
    217,          20.,          50.,         200.
    218,          20.,          55.,         195.
    219,          20.,          55.,         190.
    220,          20.,          55.,         185.
    221,          20.,          55.,         180.
    222,          20.,          55.,         175.
    223,          20.,          55.,         170.
    224,          20.,          55.,         165.
    225,          20.,          55.,         160.
    226,          20.,          55.,         155.
    227,          20.,          55.,         150.
    228,          20.,          55.,         145.
    229,          20.,          55.,         140.
    230,          20.,          55.,         135.
    231,          20.,          55.,         130.
    232,          20.,          55.,         125.
    233,          20.,          55.,         120.
    234,          20.,          55.,         115.
    235,          20.,          55.,         110.
    236,          20.,          55.,         105.
    237,          20.,          55.,         100.
    238,          20.,          55.,          95.
    239,          20.,          55.,          90.
    240,          20.,          55.,          85.
    241,          20.,          55.,          80.
    242,          20.,          55.,          75.
    243,          20.,          55.,          70.
    244,          20.,          55.,          65.
    245,          20.,          55.,          60.
    246,          20.,          55.,          55.
    247,          20.,          55.,          50.
    248,          20.,          55.,          45.
    249,          20.,          55.,          40.
    250,          20.,          55.,          35.
    251,          20.,          55.,          30.
    252,          20.,          55.,          25.
    253,          20.,          55.,          20.
    254,          20.,          55.,          15.
    255,          20.,          55.,          10.
    256,          20.,          55.,           5.
    257,          20.,          50.,           0.
    258,          30.,          50.,         200.
    259,          30.,          55.,           5.
    260,          30.,          55.,          10.
    261,          30.,          55.,          15.
    262,          30.,          55.,          20.
    263,          30.,          55.,          25.
    264,          30.,          55.,          30.
    265,          30.,          55.,          35.
    266,          30.,          55.,          40.
    267,          30.,          55.,          45.
    268,          30.,          55.,          50.
    269,          30.,          55.,          55.
    270,          30.,          55.,          60.
    271,          30.,          55.,          65.
    272,          30.,          55.,          70.
    273,          30.,          55.,          75.
    274,          30.,          55.,          80.
    275,          30.,          55.,          85.
    276,          30.,          55.,          90.
    277,          30.,          55.,          95.
    278,          30.,          55.,         100.
    279,          30.,          55.,         105.
    280,          30.,          55.,         110.
    281,          30.,          55.,         115.
    282,          30.,          55.,         120.
    283,          30.,          55.,         125.
    284,          30.,          55.,         130.
    285,          30.,          55.,         135.
    286,          30.,          55.,         140.
    287,          30.,          55.,         145.
    288,          30.,          55.,         150.
    289,          30.,          55.,         155.
    290,          30.,          55.,         160.
    291,          30.,          55.,         165.
    292,          30.,          55.,         170.
    293,          30.,          55.,         175.
    294,          30.,          55.,         180.
    295,          30.,          55.,         185.
    296,          30.,          55.,         190.
    297,          30.,          55.,         195.
    298,          30.,          50.,           0.
    299,          25.,          55.,           0.
    300,          25.,          55.,         200.
    301,          15.,          45.,         200.
    302,          10.,          45.,         200.
    303,           5.,          45.,         200.
    304,           0.,          45.,         195.
    305,           0.,          45.,         190.
    306,           0.,          45.,         185.
    307,           0.,          45.,         180.
    308,           0.,          45.,         175.
    309,           0.,          45.,         170.
    310,           0.,          45.,         165.
    311,           0.,          45.,         160.
    312,           0.,          45.,         155.
    313,           0.,          45.,         150.
    314,           0.,          45.,         145.
    315,           0.,          45.,         140.
    316,           0.,          45.,         135.
    317,           0.,          45.,         130.
    318,           0.,          45.,         125.
    319,           0.,          45.,         120.
    320,           0.,          45.,         115.
    321,           0.,          45.,         110.
    322,           0.,          45.,         105.
    323,           0.,          45.,         100.
    324,           0.,          45.,          95.
    325,           0.,          45.,          90.
    326,           0.,          45.,          85.
    327,           0.,          45.,          80.
    328,           0.,          45.,          75.
    329,           0.,          45.,          70.
    330,           0.,          45.,          65.
    331,           0.,          45.,          60.
    332,           0.,          45.,          55.
    333,           0.,          45.,          50.
    334,           0.,          45.,          45.
    335,           0.,          45.,          40.
    336,           0.,          45.,          35.
    337,           0.,          45.,          30.
    338,           0.,          45.,          25.
    339,           0.,          45.,          20.
    340,           0.,          45.,          15.
    341,           0.,          45.,          10.
    342,           0.,          45.,           5.
    343,           5.,          45.,           0.
    344,          10.,          45.,           0.
    345,          15.,          45.,           0.
    346,           5.,          55.,         200.
    347,          10.,          55.,         200.
    348,          15.,          55.,         200.
    349,           0.,          55.,           5.
    350,           0.,          55.,          10.
    351,           0.,          55.,          15.
    352,           0.,          55.,          20.
    353,           0.,          55.,          25.
    354,           0.,          55.,          30.
    355,           0.,          55.,          35.
    356,           0.,          55.,          40.
    357,           0.,          55.,          45.
    358,           0.,          55.,          50.
    359,           0.,          55.,          55.
    360,           0.,          55.,          60.
    361,           0.,          55.,          65.
    362,           0.,          55.,          70.
    363,           0.,          55.,          75.
    364,           0.,          55.,          80.
    365,           0.,          55.,          85.
    366,           0.,          55.,          90.
    367,           0.,          55.,          95.
    368,           0.,          55.,         100.
    369,           0.,          55.,         105.
    370,           0.,          55.,         110.
    371,           0.,          55.,         115.
    372,           0.,          55.,         120.
    373,           0.,          55.,         125.
    374,           0.,          55.,         130.
    375,           0.,          55.,         135.
    376,           0.,          55.,         140.
    377,           0.,          55.,         145.
    378,           0.,          55.,         150.
    379,           0.,          55.,         155.
    380,           0.,          55.,         160.
    381,           0.,          55.,         165.
    382,           0.,          55.,         170.
    383,           0.,          55.,         175.
    384,           0.,          55.,         180.
    385,           0.,          55.,         185.
    386,           0.,          55.,         190.
    387,           0.,          55.,         195.
    388,          15.,          55.,           0.
    389,          10.,          55.,           0.
    390,           5.,          55.,           0.
    391,           0.,          50.,           0.
    392,           0.,          50.,         200.
    393,          20.,           0.,           5.
    394,          20.,           0.,          10.
    395,          20.,           0.,          15.
    396,          20.,           0.,          20.
    397,          20.,           0.,          25.
    398,          20.,           0.,          30.
    399,          20.,           0.,          35.
    400,          20.,           0.,          40.
    401,          20.,           0.,          45.
    402,          20.,           0.,          50.
    403,          20.,           0.,          55.
    404,          20.,           0.,          60.
    405,          20.,           0.,          65.
    406,          20.,           0.,          70.
    407,          20.,           0.,          75.
    408,          20.,           0.,          80.
    409,          20.,           0.,          85.
    410,          20.,           0.,          90.
    411,          20.,           0.,          95.
    412,          20.,           0.,         100.
    413,          20.,           0.,         105.
    414,          20.,           0.,         110.
    415,          20.,           0.,         115.
    416,          20.,           0.,         120.
    417,          20.,           0.,         125.
    418,          20.,           0.,         130.
    419,          20.,           0.,         135.
    420,          20.,           0.,         140.
    421,          20.,           0.,         145.
    422,          20.,           0.,         150.
    423,          20.,           0.,         155.
    424,          20.,           0.,         160.
    425,          20.,           0.,         165.
    426,          20.,           0.,         170.
    427,          20.,           0.,         175.
    428,          20.,           0.,         180.
    429,          20.,           0.,         185.
    430,          20.,           0.,         190.
    431,          20.,           0.,         195.
    432,          15.,           0.,         200.
    433,          10.,           0.,         200.
    434,           5.,           0.,         200.
    435,           0.,           0.,         195.
    436,           0.,           0.,         190.
    437,           0.,           0.,         185.
    438,           0.,           0.,         180.
    439,           0.,           0.,         175.
    440,           0.,           0.,         170.
    441,           0.,           0.,         165.
    442,           0.,           0.,         160.
    443,           0.,           0.,         155.
    444,           0.,           0.,         150.
    445,           0.,           0.,         145.
    446,           0.,           0.,         140.
    447,           0.,           0.,         135.
    448,           0.,           0.,         130.
    449,           0.,           0.,         125.
    450,           0.,           0.,         120.
    451,           0.,           0.,         115.
    452,           0.,           0.,         110.
    453,           0.,           0.,         105.
    454,           0.,           0.,         100.
    455,           0.,           0.,          95.
    456,           0.,           0.,          90.
    457,           0.,           0.,          85.
    458,           0.,           0.,          80.
    459,           0.,           0.,          75.
    460,           0.,           0.,          70.
    461,           0.,           0.,          65.
    462,           0.,           0.,          60.
    463,           0.,           0.,          55.
    464,           0.,           0.,          50.
    465,           0.,           0.,          45.
    466,           0.,           0.,          40.
    467,           0.,           0.,          35.
    468,           0.,           0.,          30.
    469,           0.,           0.,          25.
    470,           0.,           0.,          20.
    471,           0.,           0.,          15.
    472,           0.,           0.,          10.
    473,           0.,           0.,           5.
    474,           5.,           0.,           0.
    475,          10.,           0.,           0.
    476,          15.,           0.,           0.
    477,           5.,          10.,         200.
    478,          10.,          10.,         200.
    479,          15.,          10.,         200.
    480,           0.,          10.,           5.
    481,           0.,          10.,          10.
    482,           0.,          10.,          15.
    483,           0.,          10.,          20.
    484,           0.,          10.,          25.
    485,           0.,          10.,          30.
    486,           0.,          10.,          35.
    487,           0.,          10.,          40.
    488,           0.,          10.,          45.
    489,           0.,          10.,          50.
    490,           0.,          10.,          55.
    491,           0.,          10.,          60.
    492,           0.,          10.,          65.
    493,           0.,          10.,          70.
    494,           0.,          10.,          75.
    495,           0.,          10.,          80.
    496,           0.,          10.,          85.
    497,           0.,          10.,          90.
    498,           0.,          10.,          95.
    499,           0.,          10.,         100.
    500,           0.,          10.,         105.
    501,           0.,          10.,         110.
    502,           0.,          10.,         115.
    503,           0.,          10.,         120.
    504,           0.,          10.,         125.
    505,           0.,          10.,         130.
    506,           0.,          10.,         135.
    507,           0.,          10.,         140.
    508,           0.,          10.,         145.
    509,           0.,          10.,         150.
    510,           0.,          10.,         155.
    511,           0.,          10.,         160.
    512,           0.,          10.,         165.
    513,           0.,          10.,         170.
    514,           0.,          10.,         175.
    515,           0.,          10.,         180.
    516,           0.,          10.,         185.
    517,           0.,          10.,         190.
    518,           0.,          10.,         195.
    519,          15.,          10.,           0.
    520,          10.,          10.,           0.
    521,           5.,          10.,           0.
    522,           0.,           5.,           0.
    523,          20.,           5.,           0.
    524,           0.,           5.,         200.
    525,          20.,           5.,         200.
    526,          35.,          10.,         200.
    527,          40.,          10.,         200.
    528,          45.,          10.,         200.
    529,          50.,          10.,         195.
    530,          50.,          10.,         190.
    531,          50.,          10.,         185.
    532,          50.,          10.,         180.
    533,          50.,          10.,         175.
    534,          50.,          10.,         170.
    535,          50.,          10.,         165.
    536,          50.,          10.,         160.
    537,          50.,          10.,         155.
    538,          50.,          10.,         150.
    539,          50.,          10.,         145.
    540,          50.,          10.,         140.
    541,          50.,          10.,         135.
    542,          50.,          10.,         130.
    543,          50.,          10.,         125.
    544,          50.,          10.,         120.
    545,          50.,          10.,         115.
    546,          50.,          10.,         110.
    547,          50.,          10.,         105.
    548,          50.,          10.,         100.
    549,          50.,          10.,          95.
    550,          50.,          10.,          90.
    551,          50.,          10.,          85.
    552,          50.,          10.,          80.
    553,          50.,          10.,          75.
    554,          50.,          10.,          70.
    555,          50.,          10.,          65.
    556,          50.,          10.,          60.
    557,          50.,          10.,          55.
    558,          50.,          10.,          50.
    559,          50.,          10.,          45.
    560,          50.,          10.,          40.
    561,          50.,          10.,          35.
    562,          50.,          10.,          30.
    563,          50.,          10.,          25.
    564,          50.,          10.,          20.
    565,          50.,          10.,          15.
    566,          50.,          10.,          10.
    567,          50.,          10.,           5.
    568,          45.,          10.,           0.
    569,          40.,          10.,           0.
    570,          35.,          10.,           0.
    571,          45.,           0.,         200.
    572,          40.,           0.,         200.
    573,          35.,           0.,         200.
    574,          50.,           0.,           5.
    575,          50.,           0.,          10.
    576,          50.,           0.,          15.
    577,          50.,           0.,          20.
    578,          50.,           0.,          25.
    579,          50.,           0.,          30.
    580,          50.,           0.,          35.
    581,          50.,           0.,          40.
    582,          50.,           0.,          45.
    583,          50.,           0.,          50.
    584,          50.,           0.,          55.
    585,          50.,           0.,          60.
    586,          50.,           0.,          65.
    587,          50.,           0.,          70.
    588,          50.,           0.,          75.
    589,          50.,           0.,          80.
    590,          50.,           0.,          85.
    591,          50.,           0.,          90.
    592,          50.,           0.,          95.
    593,          50.,           0.,         100.
    594,          50.,           0.,         105.
    595,          50.,           0.,         110.
    596,          50.,           0.,         115.
    597,          50.,           0.,         120.
    598,          50.,           0.,         125.
    599,          50.,           0.,         130.
    600,          50.,           0.,         135.
    601,          50.,           0.,         140.
    602,          50.,           0.,         145.
    603,          50.,           0.,         150.
    604,          50.,           0.,         155.
    605,          50.,           0.,         160.
    606,          50.,           0.,         165.
    607,          50.,           0.,         170.
    608,          50.,           0.,         175.
    609,          50.,           0.,         180.
    610,          50.,           0.,         185.
    611,          50.,           0.,         190.
    612,          50.,           0.,         195.
    613,          35.,           0.,           0.
    614,          40.,           0.,           0.
    615,          45.,           0.,           0.
    616,          30.,           0.,         195.
    617,          30.,           0.,         190.
    618,          30.,           0.,         185.
    619,          30.,           0.,         180.
    620,          30.,           0.,         175.
    621,          30.,           0.,         170.
    622,          30.,           0.,         165.
    623,          30.,           0.,         160.
    624,          30.,           0.,         155.
    625,          30.,           0.,         150.
    626,          30.,           0.,         145.
    627,          30.,           0.,         140.
    628,          30.,           0.,         135.
    629,          30.,           0.,         130.
    630,          30.,           0.,         125.
    631,          30.,           0.,         120.
    632,          30.,           0.,         115.
    633,          30.,           0.,         110.
    634,          30.,           0.,         105.
    635,          30.,           0.,         100.
    636,          30.,           0.,          95.
    637,          30.,           0.,          90.
    638,          30.,           0.,          85.
    639,          30.,           0.,          80.
    640,          30.,           0.,          75.
    641,          30.,           0.,          70.
    642,          30.,           0.,          65.
    643,          30.,           0.,          60.
    644,          30.,           0.,          55.
    645,          30.,           0.,          50.
    646,          30.,           0.,          45.
    647,          30.,           0.,          40.
    648,          30.,           0.,          35.
    649,          30.,           0.,          30.
    650,          30.,           0.,          25.
    651,          30.,           0.,          20.
    652,          30.,           0.,          15.
    653,          30.,           0.,          10.
    654,          30.,           0.,           5.
    655,          30.,           5.,           0.
    656,          30.,           5.,         200.
    657,          50.,           5.,           0.
    658,          50.,           5.,         200.
    659,          45.,          45.,         200.
    660,          40.,          45.,         200.
    661,          35.,          45.,         200.
    662,          35.,          45.,           0.
    663,          40.,          45.,           0.
    664,          45.,          45.,           0.
    665,          50.,          45.,           5.
    666,          50.,          45.,          10.
    667,          50.,          45.,          15.
    668,          50.,          45.,          20.
    669,          50.,          45.,          25.
    670,          50.,          45.,          30.
    671,          50.,          45.,          35.
    672,          50.,          45.,          40.
    673,          50.,          45.,          45.
    674,          50.,          45.,          50.
    675,          50.,          45.,          55.
    676,          50.,          45.,          60.
    677,          50.,          45.,          65.
    678,          50.,          45.,          70.
    679,          50.,          45.,          75.
    680,          50.,          45.,          80.
    681,          50.,          45.,          85.
    682,          50.,          45.,          90.
    683,          50.,          45.,          95.
    684,          50.,          45.,         100.
    685,          50.,          45.,         105.
    686,          50.,          45.,         110.
    687,          50.,          45.,         115.
    688,          50.,          45.,         120.
    689,          50.,          45.,         125.
    690,          50.,          45.,         130.
    691,          50.,          45.,         135.
    692,          50.,          45.,         140.
    693,          50.,          45.,         145.
    694,          50.,          45.,         150.
    695,          50.,          45.,         155.
    696,          50.,          45.,         160.
    697,          50.,          45.,         165.
    698,          50.,          45.,         170.
    699,          50.,          45.,         175.
    700,          50.,          45.,         180.
    701,          50.,          45.,         185.
    702,          50.,          45.,         190.
    703,          50.,          45.,         195.
    704,          35.,          55.,         200.
    705,          40.,          55.,         200.
    706,          45.,          55.,         200.
    707,          45.,          55.,           0.
    708,          40.,          55.,           0.
    709,          35.,          55.,           0.
    710,          50.,          55.,         195.
    711,          50.,          55.,         190.
    712,          50.,          55.,         185.
    713,          50.,          55.,         180.
    714,          50.,          55.,         175.
    715,          50.,          55.,         170.
    716,          50.,          55.,         165.
    717,          50.,          55.,         160.
    718,          50.,          55.,         155.
    719,          50.,          55.,         150.
    720,          50.,          55.,         145.
    721,          50.,          55.,         140.
    722,          50.,          55.,         135.
    723,          50.,          55.,         130.
    724,          50.,          55.,         125.
    725,          50.,          55.,         120.
    726,          50.,          55.,         115.
    727,          50.,          55.,         110.
    728,          50.,          55.,         105.
    729,          50.,          55.,         100.
    730,          50.,          55.,          95.
    731,          50.,          55.,          90.
    732,          50.,          55.,          85.
    733,          50.,          55.,          80.
    734,          50.,          55.,          75.
    735,          50.,          55.,          70.
    736,          50.,          55.,          65.
    737,          50.,          55.,          60.
    738,          50.,          55.,          55.
    739,          50.,          55.,          50.
    740,          50.,          55.,          45.
    741,          50.,          55.,          40.
    742,          50.,          55.,          35.
    743,          50.,          55.,          30.
    744,          50.,          55.,          25.
    745,          50.,          55.,          20.
    746,          50.,          55.,          15.
    747,          50.,          55.,          10.
    748,          50.,          55.,           5.
    749,          50.,          50.,           0.
    750,          50.,          50.,         200.
    751,          25.,           0.,           0.
    752,          25.,           0.,         200.
    753,          20.,          15.,         195.
    754,          20.,          20.,         195.
    755,          20.,          25.,         195.
    756,          20.,          30.,         195.
    757,          20.,          35.,         195.
    758,          20.,          40.,         195.
    759,          20.,          15.,         190.
    760,          20.,          20.,         190.
    761,          20.,          25.,         190.
    762,          20.,          30.,         190.
    763,          20.,          35.,         190.
    764,          20.,          40.,         190.
    765,          20.,          15.,         185.
    766,          20.,          20.,         185.
    767,          20.,          25.,         185.
    768,          20.,          30.,         185.
    769,          20.,          35.,         185.
    770,          20.,          40.,         185.
    771,          20.,          15.,         180.
    772,          20.,          20.,         180.
    773,          20.,          25.,         180.
    774,          20.,          30.,         180.
    775,          20.,          35.,         180.
    776,          20.,          40.,         180.
    777,          20.,          15.,         175.
    778,          20.,          20.,         175.
    779,          20.,          25.,         175.
    780,          20.,          30.,         175.
    781,          20.,          35.,         175.
    782,          20.,          40.,         175.
    783,          20.,          15.,         170.
    784,          20.,          20.,         170.
    785,          20.,          25.,         170.
    786,          20.,          30.,         170.
    787,          20.,          35.,         170.
    788,          20.,          40.,         170.
    789,          20.,          15.,         165.
    790,          20.,          20.,         165.
    791,          20.,          25.,         165.
    792,          20.,          30.,         165.
    793,          20.,          35.,         165.
    794,          20.,          40.,         165.
    795,          20.,          15.,         160.
    796,          20.,          20.,         160.
    797,          20.,          25.,         160.
    798,          20.,          30.,         160.
    799,          20.,          35.,         160.
    800,          20.,          40.,         160.
    801,          20.,          15.,         155.
    802,          20.,          20.,         155.
    803,          20.,          25.,         155.
    804,          20.,          30.,         155.
    805,          20.,          35.,         155.
    806,          20.,          40.,         155.
    807,          20.,          15.,         150.
    808,          20.,          20.,         150.
    809,          20.,          25.,         150.
    810,          20.,          30.,         150.
    811,          20.,          35.,         150.
    812,          20.,          40.,         150.
    813,          20.,          15.,         145.
    814,          20.,          20.,         145.
    815,          20.,          25.,         145.
    816,          20.,          30.,         145.
    817,          20.,          35.,         145.
    818,          20.,          40.,         145.
    819,          20.,          15.,         140.
    820,          20.,          20.,         140.
    821,          20.,          25.,         140.
    822,          20.,          30.,         140.
    823,          20.,          35.,         140.
    824,          20.,          40.,         140.
    825,          20.,          15.,         135.
    826,          20.,          20.,         135.
    827,          20.,          25.,         135.
    828,          20.,          30.,         135.
    829,          20.,          35.,         135.
    830,          20.,          40.,         135.
    831,          20.,          15.,         130.
    832,          20.,          20.,         130.
    833,          20.,          25.,         130.
    834,          20.,          30.,         130.
    835,          20.,          35.,         130.
    836,          20.,          40.,         130.
    837,          20.,          15.,         125.
    838,          20.,          20.,         125.
    839,          20.,          25.,         125.
    840,          20.,          30.,         125.
    841,          20.,          35.,         125.
    842,          20.,          40.,         125.
    843,          20.,          15.,         120.
    844,          20.,          20.,         120.
    845,          20.,          25.,         120.
    846,          20.,          30.,         120.
    847,          20.,          35.,         120.
    848,          20.,          40.,         120.
    849,          20.,          15.,         115.
    850,          20.,          20.,         115.
    851,          20.,          25.,         115.
    852,          20.,          30.,         115.
    853,          20.,          35.,         115.
    854,          20.,          40.,         115.
    855,          20.,          15.,         110.
    856,          20.,          20.,         110.
    857,          20.,          25.,         110.
    858,          20.,          30.,         110.
    859,          20.,          35.,         110.
    860,          20.,          40.,         110.
    861,          20.,          15.,         105.
    862,          20.,          20.,         105.
    863,          20.,          25.,         105.
    864,          20.,          30.,         105.
    865,          20.,          35.,         105.
    866,          20.,          40.,         105.
    867,          20.,          15.,         100.
    868,          20.,          20.,         100.
    869,          20.,          25.,         100.
    870,          20.,          30.,         100.
    871,          20.,          35.,         100.
    872,          20.,          40.,         100.
    873,          20.,          15.,          95.
    874,          20.,          20.,          95.
    875,          20.,          25.,          95.
    876,          20.,          30.,          95.
    877,          20.,          35.,          95.
    878,          20.,          40.,          95.
    879,          20.,          15.,          90.
    880,          20.,          20.,          90.
    881,          20.,          25.,          90.
    882,          20.,          30.,          90.
    883,          20.,          35.,          90.
    884,          20.,          40.,          90.
    885,          20.,          15.,          85.
    886,          20.,          20.,          85.
    887,          20.,          25.,          85.
    888,          20.,          30.,          85.
    889,          20.,          35.,          85.
    890,          20.,          40.,          85.
    891,          20.,          15.,          80.
    892,          20.,          20.,          80.
    893,          20.,          25.,          80.
    894,          20.,          30.,          80.
    895,          20.,          35.,          80.
    896,          20.,          40.,          80.
    897,          20.,          15.,          75.
    898,          20.,          20.,          75.
    899,          20.,          25.,          75.
    900,          20.,          30.,          75.
    901,          20.,          35.,          75.
    902,          20.,          40.,          75.
    903,          20.,          15.,          70.
    904,          20.,          20.,          70.
    905,          20.,          25.,          70.
    906,          20.,          30.,          70.
    907,          20.,          35.,          70.
    908,          20.,          40.,          70.
    909,          20.,          15.,          65.
    910,          20.,          20.,          65.
    911,          20.,          25.,          65.
    912,          20.,          30.,          65.
    913,          20.,          35.,          65.
    914,          20.,          40.,          65.
    915,          20.,          15.,          60.
    916,          20.,          20.,          60.
    917,          20.,          25.,          60.
    918,          20.,          30.,          60.
    919,          20.,          35.,          60.
    920,          20.,          40.,          60.
    921,          20.,          15.,          55.
    922,          20.,          20.,          55.
    923,          20.,          25.,          55.
    924,          20.,          30.,          55.
    925,          20.,          35.,          55.
    926,          20.,          40.,          55.
    927,          20.,          15.,          50.
    928,          20.,          20.,          50.
    929,          20.,          25.,          50.
    930,          20.,          30.,          50.
    931,          20.,          35.,          50.
    932,          20.,          40.,          50.
    933,          20.,          15.,          45.
    934,          20.,          20.,          45.
    935,          20.,          25.,          45.
    936,          20.,          30.,          45.
    937,          20.,          35.,          45.
    938,          20.,          40.,          45.
    939,          20.,          15.,          40.
    940,          20.,          20.,          40.
    941,          20.,          25.,          40.
    942,          20.,          30.,          40.
    943,          20.,          35.,          40.
    944,          20.,          40.,          40.
    945,          20.,          15.,          35.
    946,          20.,          20.,          35.
    947,          20.,          25.,          35.
    948,          20.,          30.,          35.
    949,          20.,          35.,          35.
    950,          20.,          40.,          35.
    951,          20.,          15.,          30.
    952,          20.,          20.,          30.
    953,          20.,          25.,          30.
    954,          20.,          30.,          30.
    955,          20.,          35.,          30.
    956,          20.,          40.,          30.
    957,          20.,          15.,          25.
    958,          20.,          20.,          25.
    959,          20.,          25.,          25.
    960,          20.,          30.,          25.
    961,          20.,          35.,          25.
    962,          20.,          40.,          25.
    963,          20.,          15.,          20.
    964,          20.,          20.,          20.
    965,          20.,          25.,          20.
    966,          20.,          30.,          20.
    967,          20.,          35.,          20.
    968,          20.,          40.,          20.
    969,          20.,          15.,          15.
    970,          20.,          20.,          15.
    971,          20.,          25.,          15.
    972,          20.,          30.,          15.
    973,          20.,          35.,          15.
    974,          20.,          40.,          15.
    975,          20.,          15.,          10.
    976,          20.,          20.,          10.
    977,          20.,          25.,          10.
    978,          20.,          30.,          10.
    979,          20.,          35.,          10.
    980,          20.,          40.,          10.
    981,          20.,          15.,           5.
    982,          20.,          20.,           5.
    983,          20.,          25.,           5.
    984,          20.,          30.,           5.
    985,          20.,          35.,           5.
    986,          20.,          40.,           5.
    987,          30.,          15.,         195.
    988,          30.,          20.,         195.
    989,          30.,          25.,         195.
    990,          30.,          30.,         195.
    991,          30.,          35.,         195.
    992,          30.,          40.,         195.
    993,          30.,          15.,         190.
    994,          30.,          20.,         190.
    995,          30.,          25.,         190.
    996,          30.,          30.,         190.
    997,          30.,          35.,         190.
    998,          30.,          40.,         190.
    999,          30.,          15.,         185.
   1000,          30.,          20.,         185.
   1001,          30.,          25.,         185.
   1002,          30.,          30.,         185.
   1003,          30.,          35.,         185.
   1004,          30.,          40.,         185.
   1005,          30.,          15.,         180.
   1006,          30.,          20.,         180.
   1007,          30.,          25.,         180.
   1008,          30.,          30.,         180.
   1009,          30.,          35.,         180.
   1010,          30.,          40.,         180.
   1011,          30.,          15.,         175.
   1012,          30.,          20.,         175.
   1013,          30.,          25.,         175.
   1014,          30.,          30.,         175.
   1015,          30.,          35.,         175.
   1016,          30.,          40.,         175.
   1017,          30.,          15.,         170.
   1018,          30.,          20.,         170.
   1019,          30.,          25.,         170.
   1020,          30.,          30.,         170.
   1021,          30.,          35.,         170.
   1022,          30.,          40.,         170.
   1023,          30.,          15.,         165.
   1024,          30.,          20.,         165.
   1025,          30.,          25.,         165.
   1026,          30.,          30.,         165.
   1027,          30.,          35.,         165.
   1028,          30.,          40.,         165.
   1029,          30.,          15.,         160.
   1030,          30.,          20.,         160.
   1031,          30.,          25.,         160.
   1032,          30.,          30.,         160.
   1033,          30.,          35.,         160.
   1034,          30.,          40.,         160.
   1035,          30.,          15.,         155.
   1036,          30.,          20.,         155.
   1037,          30.,          25.,         155.
   1038,          30.,          30.,         155.
   1039,          30.,          35.,         155.
   1040,          30.,          40.,         155.
   1041,          30.,          15.,         150.
   1042,          30.,          20.,         150.
   1043,          30.,          25.,         150.
   1044,          30.,          30.,         150.
   1045,          30.,          35.,         150.
   1046,          30.,          40.,         150.
   1047,          30.,          15.,         145.
   1048,          30.,          20.,         145.
   1049,          30.,          25.,         145.
   1050,          30.,          30.,         145.
   1051,          30.,          35.,         145.
   1052,          30.,          40.,         145.
   1053,          30.,          15.,         140.
   1054,          30.,          20.,         140.
   1055,          30.,          25.,         140.
   1056,          30.,          30.,         140.
   1057,          30.,          35.,         140.
   1058,          30.,          40.,         140.
   1059,          30.,          15.,         135.
   1060,          30.,          20.,         135.
   1061,          30.,          25.,         135.
   1062,          30.,          30.,         135.
   1063,          30.,          35.,         135.
   1064,          30.,          40.,         135.
   1065,          30.,          15.,         130.
   1066,          30.,          20.,         130.
   1067,          30.,          25.,         130.
   1068,          30.,          30.,         130.
   1069,          30.,          35.,         130.
   1070,          30.,          40.,         130.
   1071,          30.,          15.,         125.
   1072,          30.,          20.,         125.
   1073,          30.,          25.,         125.
   1074,          30.,          30.,         125.
   1075,          30.,          35.,         125.
   1076,          30.,          40.,         125.
   1077,          30.,          15.,         120.
   1078,          30.,          20.,         120.
   1079,          30.,          25.,         120.
   1080,          30.,          30.,         120.
   1081,          30.,          35.,         120.
   1082,          30.,          40.,         120.
   1083,          30.,          15.,         115.
   1084,          30.,          20.,         115.
   1085,          30.,          25.,         115.
   1086,          30.,          30.,         115.
   1087,          30.,          35.,         115.
   1088,          30.,          40.,         115.
   1089,          30.,          15.,         110.
   1090,          30.,          20.,         110.
   1091,          30.,          25.,         110.
   1092,          30.,          30.,         110.
   1093,          30.,          35.,         110.
   1094,          30.,          40.,         110.
   1095,          30.,          15.,         105.
   1096,          30.,          20.,         105.
   1097,          30.,          25.,         105.
   1098,          30.,          30.,         105.
   1099,          30.,          35.,         105.
   1100,          30.,          40.,         105.
   1101,          30.,          15.,         100.
   1102,          30.,          20.,         100.
   1103,          30.,          25.,         100.
   1104,          30.,          30.,         100.
   1105,          30.,          35.,         100.
   1106,          30.,          40.,         100.
   1107,          30.,          15.,          95.
   1108,          30.,          20.,          95.
   1109,          30.,          25.,          95.
   1110,          30.,          30.,          95.
   1111,          30.,          35.,          95.
   1112,          30.,          40.,          95.
   1113,          30.,          15.,          90.
   1114,          30.,          20.,          90.
   1115,          30.,          25.,          90.
   1116,          30.,          30.,          90.
   1117,          30.,          35.,          90.
   1118,          30.,          40.,          90.
   1119,          30.,          15.,          85.
   1120,          30.,          20.,          85.
   1121,          30.,          25.,          85.
   1122,          30.,          30.,          85.
   1123,          30.,          35.,          85.
   1124,          30.,          40.,          85.
   1125,          30.,          15.,          80.
   1126,          30.,          20.,          80.
   1127,          30.,          25.,          80.
   1128,          30.,          30.,          80.
   1129,          30.,          35.,          80.
   1130,          30.,          40.,          80.
   1131,          30.,          15.,          75.
   1132,          30.,          20.,          75.
   1133,          30.,          25.,          75.
   1134,          30.,          30.,          75.
   1135,          30.,          35.,          75.
   1136,          30.,          40.,          75.
   1137,          30.,          15.,          70.
   1138,          30.,          20.,          70.
   1139,          30.,          25.,          70.
   1140,          30.,          30.,          70.
   1141,          30.,          35.,          70.
   1142,          30.,          40.,          70.
   1143,          30.,          15.,          65.
   1144,          30.,          20.,          65.
   1145,          30.,          25.,          65.
   1146,          30.,          30.,          65.
   1147,          30.,          35.,          65.
   1148,          30.,          40.,          65.
   1149,          30.,          15.,          60.
   1150,          30.,          20.,          60.
   1151,          30.,          25.,          60.
   1152,          30.,          30.,          60.
   1153,          30.,          35.,          60.
   1154,          30.,          40.,          60.
   1155,          30.,          15.,          55.
   1156,          30.,          20.,          55.
   1157,          30.,          25.,          55.
   1158,          30.,          30.,          55.
   1159,          30.,          35.,          55.
   1160,          30.,          40.,          55.
   1161,          30.,          15.,          50.
   1162,          30.,          20.,          50.
   1163,          30.,          25.,          50.
   1164,          30.,          30.,          50.
   1165,          30.,          35.,          50.
   1166,          30.,          40.,          50.
   1167,          30.,          15.,          45.
   1168,          30.,          20.,          45.
   1169,          30.,          25.,          45.
   1170,          30.,          30.,          45.
   1171,          30.,          35.,          45.
   1172,          30.,          40.,          45.
   1173,          30.,          15.,          40.
   1174,          30.,          20.,          40.
   1175,          30.,          25.,          40.
   1176,          30.,          30.,          40.
   1177,          30.,          35.,          40.
   1178,          30.,          40.,          40.
   1179,          30.,          15.,          35.
   1180,          30.,          20.,          35.
   1181,          30.,          25.,          35.
   1182,          30.,          30.,          35.
   1183,          30.,          35.,          35.
   1184,          30.,          40.,          35.
   1185,          30.,          15.,          30.
   1186,          30.,          20.,          30.
   1187,          30.,          25.,          30.
   1188,          30.,          30.,          30.
   1189,          30.,          35.,          30.
   1190,          30.,          40.,          30.
   1191,          30.,          15.,          25.
   1192,          30.,          20.,          25.
   1193,          30.,          25.,          25.
   1194,          30.,          30.,          25.
   1195,          30.,          35.,          25.
   1196,          30.,          40.,          25.
   1197,          30.,          15.,          20.
   1198,          30.,          20.,          20.
   1199,          30.,          25.,          20.
   1200,          30.,          30.,          20.
   1201,          30.,          35.,          20.
   1202,          30.,          40.,          20.
   1203,          30.,          15.,          15.
   1204,          30.,          20.,          15.
   1205,          30.,          25.,          15.
   1206,          30.,          30.,          15.
   1207,          30.,          35.,          15.
   1208,          30.,          40.,          15.
   1209,          30.,          15.,          10.
   1210,          30.,          20.,          10.
   1211,          30.,          25.,          10.
   1212,          30.,          30.,          10.
   1213,          30.,          35.,          10.
   1214,          30.,          40.,          10.
   1215,          30.,          15.,           5.
   1216,          30.,          20.,           5.
   1217,          30.,          25.,           5.
   1218,          30.,          30.,           5.
   1219,          30.,          35.,           5.
   1220,          30.,          40.,           5.
   1221,          25.,          10.,         195.
   1222,          25.,          10.,         190.
   1223,          25.,          10.,         185.
   1224,          25.,          10.,         180.
   1225,          25.,          10.,         175.
   1226,          25.,          10.,         170.
   1227,          25.,          10.,         165.
   1228,          25.,          10.,         160.
   1229,          25.,          10.,         155.
   1230,          25.,          10.,         150.
   1231,          25.,          10.,         145.
   1232,          25.,          10.,         140.
   1233,          25.,          10.,         135.
   1234,          25.,          10.,         130.
   1235,          25.,          10.,         125.
   1236,          25.,          10.,         120.
   1237,          25.,          10.,         115.
   1238,          25.,          10.,         110.
   1239,          25.,          10.,         105.
   1240,          25.,          10.,         100.
   1241,          25.,          10.,          95.
   1242,          25.,          10.,          90.
   1243,          25.,          10.,          85.
   1244,          25.,          10.,          80.
   1245,          25.,          10.,          75.
   1246,          25.,          10.,          70.
   1247,          25.,          10.,          65.
   1248,          25.,          10.,          60.
   1249,          25.,          10.,          55.
   1250,          25.,          10.,          50.
   1251,          25.,          10.,          45.
   1252,          25.,          10.,          40.
   1253,          25.,          10.,          35.
   1254,          25.,          10.,          30.
   1255,          25.,          10.,          25.
   1256,          25.,          10.,          20.
   1257,          25.,          10.,          15.
   1258,          25.,          10.,          10.
   1259,          25.,          10.,           5.
   1260,          25.,          45.,         195.
   1261,          25.,          45.,         190.
   1262,          25.,          45.,         185.
   1263,          25.,          45.,         180.
   1264,          25.,          45.,         175.
   1265,          25.,          45.,         170.
   1266,          25.,          45.,         165.
   1267,          25.,          45.,         160.
   1268,          25.,          45.,         155.
   1269,          25.,          45.,         150.
   1270,          25.,          45.,         145.
   1271,          25.,          45.,         140.
   1272,          25.,          45.,         135.
   1273,          25.,          45.,         130.
   1274,          25.,          45.,         125.
   1275,          25.,          45.,         120.
   1276,          25.,          45.,         115.
   1277,          25.,          45.,         110.
   1278,          25.,          45.,         105.
   1279,          25.,          45.,         100.
   1280,          25.,          45.,          95.
   1281,          25.,          45.,          90.
   1282,          25.,          45.,          85.
   1283,          25.,          45.,          80.
   1284,          25.,          45.,          75.
   1285,          25.,          45.,          70.
   1286,          25.,          45.,          65.
   1287,          25.,          45.,          60.
   1288,          25.,          45.,          55.
   1289,          25.,          45.,          50.
   1290,          25.,          45.,          45.
   1291,          25.,          45.,          40.
   1292,          25.,          45.,          35.
   1293,          25.,          45.,          30.
   1294,          25.,          45.,          25.
   1295,          25.,          45.,          20.
   1296,          25.,          45.,          15.
   1297,          25.,          45.,          10.
   1298,          25.,          45.,           5.
   1299,          25.,          15.,         200.
   1300,          25.,          20.,         200.
   1301,          25.,          25.,         200.
   1302,          25.,          30.,         200.
   1303,          25.,          35.,         200.
   1304,          25.,          40.,         200.
   1305,          25.,          15.,           0.
   1306,          25.,          20.,           0.
   1307,          25.,          25.,           0.
   1308,          25.,          30.,           0.
   1309,          25.,          35.,           0.
   1310,          25.,          40.,           0.
   1311,          20.,          50.,           5.
   1312,          20.,          50.,          10.
   1313,          20.,          50.,          15.
   1314,          20.,          50.,          20.
   1315,          20.,          50.,          25.
   1316,          20.,          50.,          30.
   1317,          20.,          50.,          35.
   1318,          20.,          50.,          40.
   1319,          20.,          50.,          45.
   1320,          20.,          50.,          50.
   1321,          20.,          50.,          55.
   1322,          20.,          50.,          60.
   1323,          20.,          50.,          65.
   1324,          20.,          50.,          70.
   1325,          20.,          50.,          75.
   1326,          20.,          50.,          80.
   1327,          20.,          50.,          85.
   1328,          20.,          50.,          90.
   1329,          20.,          50.,          95.
   1330,          20.,          50.,         100.
   1331,          20.,          50.,         105.
   1332,          20.,          50.,         110.
   1333,          20.,          50.,         115.
   1334,          20.,          50.,         120.
   1335,          20.,          50.,         125.
   1336,          20.,          50.,         130.
   1337,          20.,          50.,         135.
   1338,          20.,          50.,         140.
   1339,          20.,          50.,         145.
   1340,          20.,          50.,         150.
   1341,          20.,          50.,         155.
   1342,          20.,          50.,         160.
   1343,          20.,          50.,         165.
   1344,          20.,          50.,         170.
   1345,          20.,          50.,         175.
   1346,          20.,          50.,         180.
   1347,          20.,          50.,         185.
   1348,          20.,          50.,         190.
   1349,          20.,          50.,         195.
   1350,          30.,          50.,           5.
   1351,          30.,          50.,          10.
   1352,          30.,          50.,          15.
   1353,          30.,          50.,          20.
   1354,          30.,          50.,          25.
   1355,          30.,          50.,          30.
   1356,          30.,          50.,          35.
   1357,          30.,          50.,          40.
   1358,          30.,          50.,          45.
   1359,          30.,          50.,          50.
   1360,          30.,          50.,          55.
   1361,          30.,          50.,          60.
   1362,          30.,          50.,          65.
   1363,          30.,          50.,          70.
   1364,          30.,          50.,          75.
   1365,          30.,          50.,          80.
   1366,          30.,          50.,          85.
   1367,          30.,          50.,          90.
   1368,          30.,          50.,          95.
   1369,          30.,          50.,         100.
   1370,          30.,          50.,         105.
   1371,          30.,          50.,         110.
   1372,          30.,          50.,         115.
   1373,          30.,          50.,         120.
   1374,          30.,          50.,         125.
   1375,          30.,          50.,         130.
   1376,          30.,          50.,         135.
   1377,          30.,          50.,         140.
   1378,          30.,          50.,         145.
   1379,          30.,          50.,         150.
   1380,          30.,          50.,         155.
   1381,          30.,          50.,         160.
   1382,          30.,          50.,         165.
   1383,          30.,          50.,         170.
   1384,          30.,          50.,         175.
   1385,          30.,          50.,         180.
   1386,          30.,          50.,         185.
   1387,          30.,          50.,         190.
   1388,          30.,          50.,         195.
   1389,          25.,          50.,           0.
   1390,          25.,          50.,         200.
   1391,          25.,          55.,           5.
   1392,          25.,          55.,          10.
   1393,          25.,          55.,          15.
   1394,          25.,          55.,          20.
   1395,          25.,          55.,          25.
   1396,          25.,          55.,          30.
   1397,          25.,          55.,          35.
   1398,          25.,          55.,          40.
   1399,          25.,          55.,          45.
   1400,          25.,          55.,          50.
   1401,          25.,          55.,          55.
   1402,          25.,          55.,          60.
   1403,          25.,          55.,          65.
   1404,          25.,          55.,          70.
   1405,          25.,          55.,          75.
   1406,          25.,          55.,          80.
   1407,          25.,          55.,          85.
   1408,          25.,          55.,          90.
   1409,          25.,          55.,          95.
   1410,          25.,          55.,         100.
   1411,          25.,          55.,         105.
   1412,          25.,          55.,         110.
   1413,          25.,          55.,         115.
   1414,          25.,          55.,         120.
   1415,          25.,          55.,         125.
   1416,          25.,          55.,         130.
   1417,          25.,          55.,         135.
   1418,          25.,          55.,         140.
   1419,          25.,          55.,         145.
   1420,          25.,          55.,         150.
   1421,          25.,          55.,         155.
   1422,          25.,          55.,         160.
   1423,          25.,          55.,         165.
   1424,          25.,          55.,         170.
   1425,          25.,          55.,         175.
   1426,          25.,          55.,         180.
   1427,          25.,          55.,         185.
   1428,          25.,          55.,         190.
   1429,          25.,          55.,         195.
   1430,          15.,          45.,         195.
   1431,          10.,          45.,         195.
   1432,           5.,          45.,         195.
   1433,          15.,          45.,         190.
   1434,          10.,          45.,         190.
   1435,           5.,          45.,         190.
   1436,          15.,          45.,         185.
   1437,          10.,          45.,         185.
   1438,           5.,          45.,         185.
   1439,          15.,          45.,         180.
   1440,          10.,          45.,         180.
   1441,           5.,          45.,         180.
   1442,          15.,          45.,         175.
   1443,          10.,          45.,         175.
   1444,           5.,          45.,         175.
   1445,          15.,          45.,         170.
   1446,          10.,          45.,         170.
   1447,           5.,          45.,         170.
   1448,          15.,          45.,         165.
   1449,          10.,          45.,         165.
   1450,           5.,          45.,         165.
   1451,          15.,          45.,         160.
   1452,          10.,          45.,         160.
   1453,           5.,          45.,         160.
   1454,          15.,          45.,         155.
   1455,          10.,          45.,         155.
   1456,           5.,          45.,         155.
   1457,          15.,          45.,         150.
   1458,          10.,          45.,         150.
   1459,           5.,          45.,         150.
   1460,          15.,          45.,         145.
   1461,          10.,          45.,         145.
   1462,           5.,          45.,         145.
   1463,          15.,          45.,         140.
   1464,          10.,          45.,         140.
   1465,           5.,          45.,         140.
   1466,          15.,          45.,         135.
   1467,          10.,          45.,         135.
   1468,           5.,          45.,         135.
   1469,          15.,          45.,         130.
   1470,          10.,          45.,         130.
   1471,           5.,          45.,         130.
   1472,          15.,          45.,         125.
   1473,          10.,          45.,         125.
   1474,           5.,          45.,         125.
   1475,          15.,          45.,         120.
   1476,          10.,          45.,         120.
   1477,           5.,          45.,         120.
   1478,          15.,          45.,         115.
   1479,          10.,          45.,         115.
   1480,           5.,          45.,         115.
   1481,          15.,          45.,         110.
   1482,          10.,          45.,         110.
   1483,           5.,          45.,         110.
   1484,          15.,          45.,         105.
   1485,          10.,          45.,         105.
   1486,           5.,          45.,         105.
   1487,          15.,          45.,         100.
   1488,          10.,          45.,         100.
   1489,           5.,          45.,         100.
   1490,          15.,          45.,          95.
   1491,          10.,          45.,          95.
   1492,           5.,          45.,          95.
   1493,          15.,          45.,          90.
   1494,          10.,          45.,          90.
   1495,           5.,          45.,          90.
   1496,          15.,          45.,          85.
   1497,          10.,          45.,          85.
   1498,           5.,          45.,          85.
   1499,          15.,          45.,          80.
   1500,          10.,          45.,          80.
   1501,           5.,          45.,          80.
   1502,          15.,          45.,          75.
   1503,          10.,          45.,          75.
   1504,           5.,          45.,          75.
   1505,          15.,          45.,          70.
   1506,          10.,          45.,          70.
   1507,           5.,          45.,          70.
   1508,          15.,          45.,          65.
   1509,          10.,          45.,          65.
   1510,           5.,          45.,          65.
   1511,          15.,          45.,          60.
   1512,          10.,          45.,          60.
   1513,           5.,          45.,          60.
   1514,          15.,          45.,          55.
   1515,          10.,          45.,          55.
   1516,           5.,          45.,          55.
   1517,          15.,          45.,          50.
   1518,          10.,          45.,          50.
   1519,           5.,          45.,          50.
   1520,          15.,          45.,          45.
   1521,          10.,          45.,          45.
   1522,           5.,          45.,          45.
   1523,          15.,          45.,          40.
   1524,          10.,          45.,          40.
   1525,           5.,          45.,          40.
   1526,          15.,          45.,          35.
   1527,          10.,          45.,          35.
   1528,           5.,          45.,          35.
   1529,          15.,          45.,          30.
   1530,          10.,          45.,          30.
   1531,           5.,          45.,          30.
   1532,          15.,          45.,          25.
   1533,          10.,          45.,          25.
   1534,           5.,          45.,          25.
   1535,          15.,          45.,          20.
   1536,          10.,          45.,          20.
   1537,           5.,          45.,          20.
   1538,          15.,          45.,          15.
   1539,          10.,          45.,          15.
   1540,           5.,          45.,          15.
   1541,          15.,          45.,          10.
   1542,          10.,          45.,          10.
   1543,           5.,          45.,          10.
   1544,          15.,          45.,           5.
   1545,          10.,          45.,           5.
   1546,           5.,          45.,           5.
   1547,          15.,          55.,         195.
   1548,          10.,          55.,         195.
   1549,           5.,          55.,         195.
   1550,          15.,          55.,         190.
   1551,          10.,          55.,         190.
   1552,           5.,          55.,         190.
   1553,          15.,          55.,         185.
   1554,          10.,          55.,         185.
   1555,           5.,          55.,         185.
   1556,          15.,          55.,         180.
   1557,          10.,          55.,         180.
   1558,           5.,          55.,         180.
   1559,          15.,          55.,         175.
   1560,          10.,          55.,         175.
   1561,           5.,          55.,         175.
   1562,          15.,          55.,         170.
   1563,          10.,          55.,         170.
   1564,           5.,          55.,         170.
   1565,          15.,          55.,         165.
   1566,          10.,          55.,         165.
   1567,           5.,          55.,         165.
   1568,          15.,          55.,         160.
   1569,          10.,          55.,         160.
   1570,           5.,          55.,         160.
   1571,          15.,          55.,         155.
   1572,          10.,          55.,         155.
   1573,           5.,          55.,         155.
   1574,          15.,          55.,         150.
   1575,          10.,          55.,         150.
   1576,           5.,          55.,         150.
   1577,          15.,          55.,         145.
   1578,          10.,          55.,         145.
   1579,           5.,          55.,         145.
   1580,          15.,          55.,         140.
   1581,          10.,          55.,         140.
   1582,           5.,          55.,         140.
   1583,          15.,          55.,         135.
   1584,          10.,          55.,         135.
   1585,           5.,          55.,         135.
   1586,          15.,          55.,         130.
   1587,          10.,          55.,         130.
   1588,           5.,          55.,         130.
   1589,          15.,          55.,         125.
   1590,          10.,          55.,         125.
   1591,           5.,          55.,         125.
   1592,          15.,          55.,         120.
   1593,          10.,          55.,         120.
   1594,           5.,          55.,         120.
   1595,          15.,          55.,         115.
   1596,          10.,          55.,         115.
   1597,           5.,          55.,         115.
   1598,          15.,          55.,         110.
   1599,          10.,          55.,         110.
   1600,           5.,          55.,         110.
   1601,          15.,          55.,         105.
   1602,          10.,          55.,         105.
   1603,           5.,          55.,         105.
   1604,          15.,          55.,         100.
   1605,          10.,          55.,         100.
   1606,           5.,          55.,         100.
   1607,          15.,          55.,          95.
   1608,          10.,          55.,          95.
   1609,           5.,          55.,          95.
   1610,          15.,          55.,          90.
   1611,          10.,          55.,          90.
   1612,           5.,          55.,          90.
   1613,          15.,          55.,          85.
   1614,          10.,          55.,          85.
   1615,           5.,          55.,          85.
   1616,          15.,          55.,          80.
   1617,          10.,          55.,          80.
   1618,           5.,          55.,          80.
   1619,          15.,          55.,          75.
   1620,          10.,          55.,          75.
   1621,           5.,          55.,          75.
   1622,          15.,          55.,          70.
   1623,          10.,          55.,          70.
   1624,           5.,          55.,          70.
   1625,          15.,          55.,          65.
   1626,          10.,          55.,          65.
   1627,           5.,          55.,          65.
   1628,          15.,          55.,          60.
   1629,          10.,          55.,          60.
   1630,           5.,          55.,          60.
   1631,          15.,          55.,          55.
   1632,          10.,          55.,          55.
   1633,           5.,          55.,          55.
   1634,          15.,          55.,          50.
   1635,          10.,          55.,          50.
   1636,           5.,          55.,          50.
   1637,          15.,          55.,          45.
   1638,          10.,          55.,          45.
   1639,           5.,          55.,          45.
   1640,          15.,          55.,          40.
   1641,          10.,          55.,          40.
   1642,           5.,          55.,          40.
   1643,          15.,          55.,          35.
   1644,          10.,          55.,          35.
   1645,           5.,          55.,          35.
   1646,          15.,          55.,          30.
   1647,          10.,          55.,          30.
   1648,           5.,          55.,          30.
   1649,          15.,          55.,          25.
   1650,          10.,          55.,          25.
   1651,           5.,          55.,          25.
   1652,          15.,          55.,          20.
   1653,          10.,          55.,          20.
   1654,           5.,          55.,          20.
   1655,          15.,          55.,          15.
   1656,          10.,          55.,          15.
   1657,           5.,          55.,          15.
   1658,          15.,          55.,          10.
   1659,          10.,          55.,          10.
   1660,           5.,          55.,          10.
   1661,          15.,          55.,           5.
   1662,          10.,          55.,           5.
   1663,           5.,          55.,           5.
   1664,           0.,          50.,         195.
   1665,           0.,          50.,         190.
   1666,           0.,          50.,         185.
   1667,           0.,          50.,         180.
   1668,           0.,          50.,         175.
   1669,           0.,          50.,         170.
   1670,           0.,          50.,         165.
   1671,           0.,          50.,         160.
   1672,           0.,          50.,         155.
   1673,           0.,          50.,         150.
   1674,           0.,          50.,         145.
   1675,           0.,          50.,         140.
   1676,           0.,          50.,         135.
   1677,           0.,          50.,         130.
   1678,           0.,          50.,         125.
   1679,           0.,          50.,         120.
   1680,           0.,          50.,         115.
   1681,           0.,          50.,         110.
   1682,           0.,          50.,         105.
   1683,           0.,          50.,         100.
   1684,           0.,          50.,          95.
   1685,           0.,          50.,          90.
   1686,           0.,          50.,          85.
   1687,           0.,          50.,          80.
   1688,           0.,          50.,          75.
   1689,           0.,          50.,          70.
   1690,           0.,          50.,          65.
   1691,           0.,          50.,          60.
   1692,           0.,          50.,          55.
   1693,           0.,          50.,          50.
   1694,           0.,          50.,          45.
   1695,           0.,          50.,          40.
   1696,           0.,          50.,          35.
   1697,           0.,          50.,          30.
   1698,           0.,          50.,          25.
   1699,           0.,          50.,          20.
   1700,           0.,          50.,          15.
   1701,           0.,          50.,          10.
   1702,           0.,          50.,           5.
   1703,          15.,          50.,         200.
   1704,          10.,          50.,         200.
   1705,           5.,          50.,         200.
   1706,          15.,          50.,           0.
   1707,          10.,          50.,           0.
   1708,           5.,          50.,           0.
   1709,          15.,           0.,           5.
   1710,          15.,           0.,          10.
   1711,          15.,           0.,          15.
   1712,          15.,           0.,          20.
   1713,          15.,           0.,          25.
   1714,          15.,           0.,          30.
   1715,          15.,           0.,          35.
   1716,          15.,           0.,          40.
   1717,          15.,           0.,          45.
   1718,          15.,           0.,          50.
   1719,          15.,           0.,          55.
   1720,          15.,           0.,          60.
   1721,          15.,           0.,          65.
   1722,          15.,           0.,          70.
   1723,          15.,           0.,          75.
   1724,          15.,           0.,          80.
   1725,          15.,           0.,          85.
   1726,          15.,           0.,          90.
   1727,          15.,           0.,          95.
   1728,          15.,           0.,         100.
   1729,          15.,           0.,         105.
   1730,          15.,           0.,         110.
   1731,          15.,           0.,         115.
   1732,          15.,           0.,         120.
   1733,          15.,           0.,         125.
   1734,          15.,           0.,         130.
   1735,          15.,           0.,         135.
   1736,          15.,           0.,         140.
   1737,          15.,           0.,         145.
   1738,          15.,           0.,         150.
   1739,          15.,           0.,         155.
   1740,          15.,           0.,         160.
   1741,          15.,           0.,         165.
   1742,          15.,           0.,         170.
   1743,          15.,           0.,         175.
   1744,          15.,           0.,         180.
   1745,          15.,           0.,         185.
   1746,          15.,           0.,         190.
   1747,          15.,           0.,         195.
   1748,          10.,           0.,           5.
   1749,          10.,           0.,          10.
   1750,          10.,           0.,          15.
   1751,          10.,           0.,          20.
   1752,          10.,           0.,          25.
   1753,          10.,           0.,          30.
   1754,          10.,           0.,          35.
   1755,          10.,           0.,          40.
   1756,          10.,           0.,          45.
   1757,          10.,           0.,          50.
   1758,          10.,           0.,          55.
   1759,          10.,           0.,          60.
   1760,          10.,           0.,          65.
   1761,          10.,           0.,          70.
   1762,          10.,           0.,          75.
   1763,          10.,           0.,          80.
   1764,          10.,           0.,          85.
   1765,          10.,           0.,          90.
   1766,          10.,           0.,          95.
   1767,          10.,           0.,         100.
   1768,          10.,           0.,         105.
   1769,          10.,           0.,         110.
   1770,          10.,           0.,         115.
   1771,          10.,           0.,         120.
   1772,          10.,           0.,         125.
   1773,          10.,           0.,         130.
   1774,          10.,           0.,         135.
   1775,          10.,           0.,         140.
   1776,          10.,           0.,         145.
   1777,          10.,           0.,         150.
   1778,          10.,           0.,         155.
   1779,          10.,           0.,         160.
   1780,          10.,           0.,         165.
   1781,          10.,           0.,         170.
   1782,          10.,           0.,         175.
   1783,          10.,           0.,         180.
   1784,          10.,           0.,         185.
   1785,          10.,           0.,         190.
   1786,          10.,           0.,         195.
   1787,           5.,           0.,           5.
   1788,           5.,           0.,          10.
   1789,           5.,           0.,          15.
   1790,           5.,           0.,          20.
   1791,           5.,           0.,          25.
   1792,           5.,           0.,          30.
   1793,           5.,           0.,          35.
   1794,           5.,           0.,          40.
   1795,           5.,           0.,          45.
   1796,           5.,           0.,          50.
   1797,           5.,           0.,          55.
   1798,           5.,           0.,          60.
   1799,           5.,           0.,          65.
   1800,           5.,           0.,          70.
   1801,           5.,           0.,          75.
   1802,           5.,           0.,          80.
   1803,           5.,           0.,          85.
   1804,           5.,           0.,          90.
   1805,           5.,           0.,          95.
   1806,           5.,           0.,         100.
   1807,           5.,           0.,         105.
   1808,           5.,           0.,         110.
   1809,           5.,           0.,         115.
   1810,           5.,           0.,         120.
   1811,           5.,           0.,         125.
   1812,           5.,           0.,         130.
   1813,           5.,           0.,         135.
   1814,           5.,           0.,         140.
   1815,           5.,           0.,         145.
   1816,           5.,           0.,         150.
   1817,           5.,           0.,         155.
   1818,           5.,           0.,         160.
   1819,           5.,           0.,         165.
   1820,           5.,           0.,         170.
   1821,           5.,           0.,         175.
   1822,           5.,           0.,         180.
   1823,           5.,           0.,         185.
   1824,           5.,           0.,         190.
   1825,           5.,           0.,         195.
   1826,          15.,          10.,           5.
   1827,          15.,          10.,          10.
   1828,          15.,          10.,          15.
   1829,          15.,          10.,          20.
   1830,          15.,          10.,          25.
   1831,          15.,          10.,          30.
   1832,          15.,          10.,          35.
   1833,          15.,          10.,          40.
   1834,          15.,          10.,          45.
   1835,          15.,          10.,          50.
   1836,          15.,          10.,          55.
   1837,          15.,          10.,          60.
   1838,          15.,          10.,          65.
   1839,          15.,          10.,          70.
   1840,          15.,          10.,          75.
   1841,          15.,          10.,          80.
   1842,          15.,          10.,          85.
   1843,          15.,          10.,          90.
   1844,          15.,          10.,          95.
   1845,          15.,          10.,         100.
   1846,          15.,          10.,         105.
   1847,          15.,          10.,         110.
   1848,          15.,          10.,         115.
   1849,          15.,          10.,         120.
   1850,          15.,          10.,         125.
   1851,          15.,          10.,         130.
   1852,          15.,          10.,         135.
   1853,          15.,          10.,         140.
   1854,          15.,          10.,         145.
   1855,          15.,          10.,         150.
   1856,          15.,          10.,         155.
   1857,          15.,          10.,         160.
   1858,          15.,          10.,         165.
   1859,          15.,          10.,         170.
   1860,          15.,          10.,         175.
   1861,          15.,          10.,         180.
   1862,          15.,          10.,         185.
   1863,          15.,          10.,         190.
   1864,          15.,          10.,         195.
   1865,          10.,          10.,           5.
   1866,          10.,          10.,          10.
   1867,          10.,          10.,          15.
   1868,          10.,          10.,          20.
   1869,          10.,          10.,          25.
   1870,          10.,          10.,          30.
   1871,          10.,          10.,          35.
   1872,          10.,          10.,          40.
   1873,          10.,          10.,          45.
   1874,          10.,          10.,          50.
   1875,          10.,          10.,          55.
   1876,          10.,          10.,          60.
   1877,          10.,          10.,          65.
   1878,          10.,          10.,          70.
   1879,          10.,          10.,          75.
   1880,          10.,          10.,          80.
   1881,          10.,          10.,          85.
   1882,          10.,          10.,          90.
   1883,          10.,          10.,          95.
   1884,          10.,          10.,         100.
   1885,          10.,          10.,         105.
   1886,          10.,          10.,         110.
   1887,          10.,          10.,         115.
   1888,          10.,          10.,         120.
   1889,          10.,          10.,         125.
   1890,          10.,          10.,         130.
   1891,          10.,          10.,         135.
   1892,          10.,          10.,         140.
   1893,          10.,          10.,         145.
   1894,          10.,          10.,         150.
   1895,          10.,          10.,         155.
   1896,          10.,          10.,         160.
   1897,          10.,          10.,         165.
   1898,          10.,          10.,         170.
   1899,          10.,          10.,         175.
   1900,          10.,          10.,         180.
   1901,          10.,          10.,         185.
   1902,          10.,          10.,         190.
   1903,          10.,          10.,         195.
   1904,           5.,          10.,           5.
   1905,           5.,          10.,          10.
   1906,           5.,          10.,          15.
   1907,           5.,          10.,          20.
   1908,           5.,          10.,          25.
   1909,           5.,          10.,          30.
   1910,           5.,          10.,          35.
   1911,           5.,          10.,          40.
   1912,           5.,          10.,          45.
   1913,           5.,          10.,          50.
   1914,           5.,          10.,          55.
   1915,           5.,          10.,          60.
   1916,           5.,          10.,          65.
   1917,           5.,          10.,          70.
   1918,           5.,          10.,          75.
   1919,           5.,          10.,          80.
   1920,           5.,          10.,          85.
   1921,           5.,          10.,          90.
   1922,           5.,          10.,          95.
   1923,           5.,          10.,         100.
   1924,           5.,          10.,         105.
   1925,           5.,          10.,         110.
   1926,           5.,          10.,         115.
   1927,           5.,          10.,         120.
   1928,           5.,          10.,         125.
   1929,           5.,          10.,         130.
   1930,           5.,          10.,         135.
   1931,           5.,          10.,         140.
   1932,           5.,          10.,         145.
   1933,           5.,          10.,         150.
   1934,           5.,          10.,         155.
   1935,           5.,          10.,         160.
   1936,           5.,          10.,         165.
   1937,           5.,          10.,         170.
   1938,           5.,          10.,         175.
   1939,           5.,          10.,         180.
   1940,           5.,          10.,         185.
   1941,           5.,          10.,         190.
   1942,           5.,          10.,         195.
   1943,          15.,           5.,           0.
   1944,          10.,           5.,           0.
   1945,           5.,           5.,           0.
   1946,          15.,           5.,         200.
   1947,          10.,           5.,         200.
   1948,           5.,           5.,         200.
   1949,          20.,           5.,           5.
   1950,          20.,           5.,          10.
   1951,          20.,           5.,          15.
   1952,          20.,           5.,          20.
   1953,          20.,           5.,          25.
   1954,          20.,           5.,          30.
   1955,          20.,           5.,          35.
   1956,          20.,           5.,          40.
   1957,          20.,           5.,          45.
   1958,          20.,           5.,          50.
   1959,          20.,           5.,          55.
   1960,          20.,           5.,          60.
   1961,          20.,           5.,          65.
   1962,          20.,           5.,          70.
   1963,          20.,           5.,          75.
   1964,          20.,           5.,          80.
   1965,          20.,           5.,          85.
   1966,          20.,           5.,          90.
   1967,          20.,           5.,          95.
   1968,          20.,           5.,         100.
   1969,          20.,           5.,         105.
   1970,          20.,           5.,         110.
   1971,          20.,           5.,         115.
   1972,          20.,           5.,         120.
   1973,          20.,           5.,         125.
   1974,          20.,           5.,         130.
   1975,          20.,           5.,         135.
   1976,          20.,           5.,         140.
   1977,          20.,           5.,         145.
   1978,          20.,           5.,         150.
   1979,          20.,           5.,         155.
   1980,          20.,           5.,         160.
   1981,          20.,           5.,         165.
   1982,          20.,           5.,         170.
   1983,          20.,           5.,         175.
   1984,          20.,           5.,         180.
   1985,          20.,           5.,         185.
   1986,          20.,           5.,         190.
   1987,          20.,           5.,         195.
   1988,           0.,           5.,           5.
   1989,           0.,           5.,          10.
   1990,           0.,           5.,          15.
   1991,           0.,           5.,          20.
   1992,           0.,           5.,          25.
   1993,           0.,           5.,          30.
   1994,           0.,           5.,          35.
   1995,           0.,           5.,          40.
   1996,           0.,           5.,          45.
   1997,           0.,           5.,          50.
   1998,           0.,           5.,          55.
   1999,           0.,           5.,          60.
   2000,           0.,           5.,          65.
   2001,           0.,           5.,          70.
   2002,           0.,           5.,          75.
   2003,           0.,           5.,          80.
   2004,           0.,           5.,          85.
   2005,           0.,           5.,          90.
   2006,           0.,           5.,          95.
   2007,           0.,           5.,         100.
   2008,           0.,           5.,         105.
   2009,           0.,           5.,         110.
   2010,           0.,           5.,         115.
   2011,           0.,           5.,         120.
   2012,           0.,           5.,         125.
   2013,           0.,           5.,         130.
   2014,           0.,           5.,         135.
   2015,           0.,           5.,         140.
   2016,           0.,           5.,         145.
   2017,           0.,           5.,         150.
   2018,           0.,           5.,         155.
   2019,           0.,           5.,         160.
   2020,           0.,           5.,         165.
   2021,           0.,           5.,         170.
   2022,           0.,           5.,         175.
   2023,           0.,           5.,         180.
   2024,           0.,           5.,         185.
   2025,           0.,           5.,         190.
   2026,           0.,           5.,         195.
   2027,          35.,          10.,         195.
   2028,          40.,          10.,         195.
   2029,          45.,          10.,         195.
   2030,          35.,          10.,         190.
   2031,          40.,          10.,         190.
   2032,          45.,          10.,         190.
   2033,          35.,          10.,         185.
   2034,          40.,          10.,         185.
   2035,          45.,          10.,         185.
   2036,          35.,          10.,         180.
   2037,          40.,          10.,         180.
   2038,          45.,          10.,         180.
   2039,          35.,          10.,         175.
   2040,          40.,          10.,         175.
   2041,          45.,          10.,         175.
   2042,          35.,          10.,         170.
   2043,          40.,          10.,         170.
   2044,          45.,          10.,         170.
   2045,          35.,          10.,         165.
   2046,          40.,          10.,         165.
   2047,          45.,          10.,         165.
   2048,          35.,          10.,         160.
   2049,          40.,          10.,         160.
   2050,          45.,          10.,         160.
   2051,          35.,          10.,         155.
   2052,          40.,          10.,         155.
   2053,          45.,          10.,         155.
   2054,          35.,          10.,         150.
   2055,          40.,          10.,         150.
   2056,          45.,          10.,         150.
   2057,          35.,          10.,         145.
   2058,          40.,          10.,         145.
   2059,          45.,          10.,         145.
   2060,          35.,          10.,         140.
   2061,          40.,          10.,         140.
   2062,          45.,          10.,         140.
   2063,          35.,          10.,         135.
   2064,          40.,          10.,         135.
   2065,          45.,          10.,         135.
   2066,          35.,          10.,         130.
   2067,          40.,          10.,         130.
   2068,          45.,          10.,         130.
   2069,          35.,          10.,         125.
   2070,          40.,          10.,         125.
   2071,          45.,          10.,         125.
   2072,          35.,          10.,         120.
   2073,          40.,          10.,         120.
   2074,          45.,          10.,         120.
   2075,          35.,          10.,         115.
   2076,          40.,          10.,         115.
   2077,          45.,          10.,         115.
   2078,          35.,          10.,         110.
   2079,          40.,          10.,         110.
   2080,          45.,          10.,         110.
   2081,          35.,          10.,         105.
   2082,          40.,          10.,         105.
   2083,          45.,          10.,         105.
   2084,          35.,          10.,         100.
   2085,          40.,          10.,         100.
   2086,          45.,          10.,         100.
   2087,          35.,          10.,          95.
   2088,          40.,          10.,          95.
   2089,          45.,          10.,          95.
   2090,          35.,          10.,          90.
   2091,          40.,          10.,          90.
   2092,          45.,          10.,          90.
   2093,          35.,          10.,          85.
   2094,          40.,          10.,          85.
   2095,          45.,          10.,          85.
   2096,          35.,          10.,          80.
   2097,          40.,          10.,          80.
   2098,          45.,          10.,          80.
   2099,          35.,          10.,          75.
   2100,          40.,          10.,          75.
   2101,          45.,          10.,          75.
   2102,          35.,          10.,          70.
   2103,          40.,          10.,          70.
   2104,          45.,          10.,          70.
   2105,          35.,          10.,          65.
   2106,          40.,          10.,          65.
   2107,          45.,          10.,          65.
   2108,          35.,          10.,          60.
   2109,          40.,          10.,          60.
   2110,          45.,          10.,          60.
   2111,          35.,          10.,          55.
   2112,          40.,          10.,          55.
   2113,          45.,          10.,          55.
   2114,          35.,          10.,          50.
   2115,          40.,          10.,          50.
   2116,          45.,          10.,          50.
   2117,          35.,          10.,          45.
   2118,          40.,          10.,          45.
   2119,          45.,          10.,          45.
   2120,          35.,          10.,          40.
   2121,          40.,          10.,          40.
   2122,          45.,          10.,          40.
   2123,          35.,          10.,          35.
   2124,          40.,          10.,          35.
   2125,          45.,          10.,          35.
   2126,          35.,          10.,          30.
   2127,          40.,          10.,          30.
   2128,          45.,          10.,          30.
   2129,          35.,          10.,          25.
   2130,          40.,          10.,          25.
   2131,          45.,          10.,          25.
   2132,          35.,          10.,          20.
   2133,          40.,          10.,          20.
   2134,          45.,          10.,          20.
   2135,          35.,          10.,          15.
   2136,          40.,          10.,          15.
   2137,          45.,          10.,          15.
   2138,          35.,          10.,          10.
   2139,          40.,          10.,          10.
   2140,          45.,          10.,          10.
   2141,          35.,          10.,           5.
   2142,          40.,          10.,           5.
   2143,          45.,          10.,           5.
   2144,          35.,           0.,         195.
   2145,          40.,           0.,         195.
   2146,          45.,           0.,         195.
   2147,          35.,           0.,         190.
   2148,          40.,           0.,         190.
   2149,          45.,           0.,         190.
   2150,          35.,           0.,         185.
   2151,          40.,           0.,         185.
   2152,          45.,           0.,         185.
   2153,          35.,           0.,         180.
   2154,          40.,           0.,         180.
   2155,          45.,           0.,         180.
   2156,          35.,           0.,         175.
   2157,          40.,           0.,         175.
   2158,          45.,           0.,         175.
   2159,          35.,           0.,         170.
   2160,          40.,           0.,         170.
   2161,          45.,           0.,         170.
   2162,          35.,           0.,         165.
   2163,          40.,           0.,         165.
   2164,          45.,           0.,         165.
   2165,          35.,           0.,         160.
   2166,          40.,           0.,         160.
   2167,          45.,           0.,         160.
   2168,          35.,           0.,         155.
   2169,          40.,           0.,         155.
   2170,          45.,           0.,         155.
   2171,          35.,           0.,         150.
   2172,          40.,           0.,         150.
   2173,          45.,           0.,         150.
   2174,          35.,           0.,         145.
   2175,          40.,           0.,         145.
   2176,          45.,           0.,         145.
   2177,          35.,           0.,         140.
   2178,          40.,           0.,         140.
   2179,          45.,           0.,         140.
   2180,          35.,           0.,         135.
   2181,          40.,           0.,         135.
   2182,          45.,           0.,         135.
   2183,          35.,           0.,         130.
   2184,          40.,           0.,         130.
   2185,          45.,           0.,         130.
   2186,          35.,           0.,         125.
   2187,          40.,           0.,         125.
   2188,          45.,           0.,         125.
   2189,          35.,           0.,         120.
   2190,          40.,           0.,         120.
   2191,          45.,           0.,         120.
   2192,          35.,           0.,         115.
   2193,          40.,           0.,         115.
   2194,          45.,           0.,         115.
   2195,          35.,           0.,         110.
   2196,          40.,           0.,         110.
   2197,          45.,           0.,         110.
   2198,          35.,           0.,         105.
   2199,          40.,           0.,         105.
   2200,          45.,           0.,         105.
   2201,          35.,           0.,         100.
   2202,          40.,           0.,         100.
   2203,          45.,           0.,         100.
   2204,          35.,           0.,          95.
   2205,          40.,           0.,          95.
   2206,          45.,           0.,          95.
   2207,          35.,           0.,          90.
   2208,          40.,           0.,          90.
   2209,          45.,           0.,          90.
   2210,          35.,           0.,          85.
   2211,          40.,           0.,          85.
   2212,          45.,           0.,          85.
   2213,          35.,           0.,          80.
   2214,          40.,           0.,          80.
   2215,          45.,           0.,          80.
   2216,          35.,           0.,          75.
   2217,          40.,           0.,          75.
   2218,          45.,           0.,          75.
   2219,          35.,           0.,          70.
   2220,          40.,           0.,          70.
   2221,          45.,           0.,          70.
   2222,          35.,           0.,          65.
   2223,          40.,           0.,          65.
   2224,          45.,           0.,          65.
   2225,          35.,           0.,          60.
   2226,          40.,           0.,          60.
   2227,          45.,           0.,          60.
   2228,          35.,           0.,          55.
   2229,          40.,           0.,          55.
   2230,          45.,           0.,          55.
   2231,          35.,           0.,          50.
   2232,          40.,           0.,          50.
   2233,          45.,           0.,          50.
   2234,          35.,           0.,          45.
   2235,          40.,           0.,          45.
   2236,          45.,           0.,          45.
   2237,          35.,           0.,          40.
   2238,          40.,           0.,          40.
   2239,          45.,           0.,          40.
   2240,          35.,           0.,          35.
   2241,          40.,           0.,          35.
   2242,          45.,           0.,          35.
   2243,          35.,           0.,          30.
   2244,          40.,           0.,          30.
   2245,          45.,           0.,          30.
   2246,          35.,           0.,          25.
   2247,          40.,           0.,          25.
   2248,          45.,           0.,          25.
   2249,          35.,           0.,          20.
   2250,          40.,           0.,          20.
   2251,          45.,           0.,          20.
   2252,          35.,           0.,          15.
   2253,          40.,           0.,          15.
   2254,          45.,           0.,          15.
   2255,          35.,           0.,          10.
   2256,          40.,           0.,          10.
   2257,          45.,           0.,          10.
   2258,          35.,           0.,           5.
   2259,          40.,           0.,           5.
   2260,          45.,           0.,           5.
   2261,          30.,           5.,         195.
   2262,          30.,           5.,         190.
   2263,          30.,           5.,         185.
   2264,          30.,           5.,         180.
   2265,          30.,           5.,         175.
   2266,          30.,           5.,         170.
   2267,          30.,           5.,         165.
   2268,          30.,           5.,         160.
   2269,          30.,           5.,         155.
   2270,          30.,           5.,         150.
   2271,          30.,           5.,         145.
   2272,          30.,           5.,         140.
   2273,          30.,           5.,         135.
   2274,          30.,           5.,         130.
   2275,          30.,           5.,         125.
   2276,          30.,           5.,         120.
   2277,          30.,           5.,         115.
   2278,          30.,           5.,         110.
   2279,          30.,           5.,         105.
   2280,          30.,           5.,         100.
   2281,          30.,           5.,          95.
   2282,          30.,           5.,          90.
   2283,          30.,           5.,          85.
   2284,          30.,           5.,          80.
   2285,          30.,           5.,          75.
   2286,          30.,           5.,          70.
   2287,          30.,           5.,          65.
   2288,          30.,           5.,          60.
   2289,          30.,           5.,          55.
   2290,          30.,           5.,          50.
   2291,          30.,           5.,          45.
   2292,          30.,           5.,          40.
   2293,          30.,           5.,          35.
   2294,          30.,           5.,          30.
   2295,          30.,           5.,          25.
   2296,          30.,           5.,          20.
   2297,          30.,           5.,          15.
   2298,          30.,           5.,          10.
   2299,          30.,           5.,           5.
   2300,          50.,           5.,         195.
   2301,          50.,           5.,         190.
   2302,          50.,           5.,         185.
   2303,          50.,           5.,         180.
   2304,          50.,           5.,         175.
   2305,          50.,           5.,         170.
   2306,          50.,           5.,         165.
   2307,          50.,           5.,         160.
   2308,          50.,           5.,         155.
   2309,          50.,           5.,         150.
   2310,          50.,           5.,         145.
   2311,          50.,           5.,         140.
   2312,          50.,           5.,         135.
   2313,          50.,           5.,         130.
   2314,          50.,           5.,         125.
   2315,          50.,           5.,         120.
   2316,          50.,           5.,         115.
   2317,          50.,           5.,         110.
   2318,          50.,           5.,         105.
   2319,          50.,           5.,         100.
   2320,          50.,           5.,          95.
   2321,          50.,           5.,          90.
   2322,          50.,           5.,          85.
   2323,          50.,           5.,          80.
   2324,          50.,           5.,          75.
   2325,          50.,           5.,          70.
   2326,          50.,           5.,          65.
   2327,          50.,           5.,          60.
   2328,          50.,           5.,          55.
   2329,          50.,           5.,          50.
   2330,          50.,           5.,          45.
   2331,          50.,           5.,          40.
   2332,          50.,           5.,          35.
   2333,          50.,           5.,          30.
   2334,          50.,           5.,          25.
   2335,          50.,           5.,          20.
   2336,          50.,           5.,          15.
   2337,          50.,           5.,          10.
   2338,          50.,           5.,           5.
   2339,          35.,           5.,         200.
   2340,          40.,           5.,         200.
   2341,          45.,           5.,         200.
   2342,          35.,           5.,           0.
   2343,          40.,           5.,           0.
   2344,          45.,           5.,           0.
   2345,          45.,          45.,         195.
   2346,          40.,          45.,         195.
   2347,          35.,          45.,         195.
   2348,          45.,          45.,         190.
   2349,          40.,          45.,         190.
   2350,          35.,          45.,         190.
   2351,          45.,          45.,         185.
   2352,          40.,          45.,         185.
   2353,          35.,          45.,         185.
   2354,          45.,          45.,         180.
   2355,          40.,          45.,         180.
   2356,          35.,          45.,         180.
   2357,          45.,          45.,         175.
   2358,          40.,          45.,         175.
   2359,          35.,          45.,         175.
   2360,          45.,          45.,         170.
   2361,          40.,          45.,         170.
   2362,          35.,          45.,         170.
   2363,          45.,          45.,         165.
   2364,          40.,          45.,         165.
   2365,          35.,          45.,         165.
   2366,          45.,          45.,         160.
   2367,          40.,          45.,         160.
   2368,          35.,          45.,         160.
   2369,          45.,          45.,         155.
   2370,          40.,          45.,         155.
   2371,          35.,          45.,         155.
   2372,          45.,          45.,         150.
   2373,          40.,          45.,         150.
   2374,          35.,          45.,         150.
   2375,          45.,          45.,         145.
   2376,          40.,          45.,         145.
   2377,          35.,          45.,         145.
   2378,          45.,          45.,         140.
   2379,          40.,          45.,         140.
   2380,          35.,          45.,         140.
   2381,          45.,          45.,         135.
   2382,          40.,          45.,         135.
   2383,          35.,          45.,         135.
   2384,          45.,          45.,         130.
   2385,          40.,          45.,         130.
   2386,          35.,          45.,         130.
   2387,          45.,          45.,         125.
   2388,          40.,          45.,         125.
   2389,          35.,          45.,         125.
   2390,          45.,          45.,         120.
   2391,          40.,          45.,         120.
   2392,          35.,          45.,         120.
   2393,          45.,          45.,         115.
   2394,          40.,          45.,         115.
   2395,          35.,          45.,         115.
   2396,          45.,          45.,         110.
   2397,          40.,          45.,         110.
   2398,          35.,          45.,         110.
   2399,          45.,          45.,         105.
   2400,          40.,          45.,         105.
   2401,          35.,          45.,         105.
   2402,          45.,          45.,         100.
   2403,          40.,          45.,         100.
   2404,          35.,          45.,         100.
   2405,          45.,          45.,          95.
   2406,          40.,          45.,          95.
   2407,          35.,          45.,          95.
   2408,          45.,          45.,          90.
   2409,          40.,          45.,          90.
   2410,          35.,          45.,          90.
   2411,          45.,          45.,          85.
   2412,          40.,          45.,          85.
   2413,          35.,          45.,          85.
   2414,          45.,          45.,          80.
   2415,          40.,          45.,          80.
   2416,          35.,          45.,          80.
   2417,          45.,          45.,          75.
   2418,          40.,          45.,          75.
   2419,          35.,          45.,          75.
   2420,          45.,          45.,          70.
   2421,          40.,          45.,          70.
   2422,          35.,          45.,          70.
   2423,          45.,          45.,          65.
   2424,          40.,          45.,          65.
   2425,          35.,          45.,          65.
   2426,          45.,          45.,          60.
   2427,          40.,          45.,          60.
   2428,          35.,          45.,          60.
   2429,          45.,          45.,          55.
   2430,          40.,          45.,          55.
   2431,          35.,          45.,          55.
   2432,          45.,          45.,          50.
   2433,          40.,          45.,          50.
   2434,          35.,          45.,          50.
   2435,          45.,          45.,          45.
   2436,          40.,          45.,          45.
   2437,          35.,          45.,          45.
   2438,          45.,          45.,          40.
   2439,          40.,          45.,          40.
   2440,          35.,          45.,          40.
   2441,          45.,          45.,          35.
   2442,          40.,          45.,          35.
   2443,          35.,          45.,          35.
   2444,          45.,          45.,          30.
   2445,          40.,          45.,          30.
   2446,          35.,          45.,          30.
   2447,          45.,          45.,          25.
   2448,          40.,          45.,          25.
   2449,          35.,          45.,          25.
   2450,          45.,          45.,          20.
   2451,          40.,          45.,          20.
   2452,          35.,          45.,          20.
   2453,          45.,          45.,          15.
   2454,          40.,          45.,          15.
   2455,          35.,          45.,          15.
   2456,          45.,          45.,          10.
   2457,          40.,          45.,          10.
   2458,          35.,          45.,          10.
   2459,          45.,          45.,           5.
   2460,          40.,          45.,           5.
   2461,          35.,          45.,           5.
   2462,          45.,          55.,         195.
   2463,          40.,          55.,         195.
   2464,          35.,          55.,         195.
   2465,          45.,          55.,         190.
   2466,          40.,          55.,         190.
   2467,          35.,          55.,         190.
   2468,          45.,          55.,         185.
   2469,          40.,          55.,         185.
   2470,          35.,          55.,         185.
   2471,          45.,          55.,         180.
   2472,          40.,          55.,         180.
   2473,          35.,          55.,         180.
   2474,          45.,          55.,         175.
   2475,          40.,          55.,         175.
   2476,          35.,          55.,         175.
   2477,          45.,          55.,         170.
   2478,          40.,          55.,         170.
   2479,          35.,          55.,         170.
   2480,          45.,          55.,         165.
   2481,          40.,          55.,         165.
   2482,          35.,          55.,         165.
   2483,          45.,          55.,         160.
   2484,          40.,          55.,         160.
   2485,          35.,          55.,         160.
   2486,          45.,          55.,         155.
   2487,          40.,          55.,         155.
   2488,          35.,          55.,         155.
   2489,          45.,          55.,         150.
   2490,          40.,          55.,         150.
   2491,          35.,          55.,         150.
   2492,          45.,          55.,         145.
   2493,          40.,          55.,         145.
   2494,          35.,          55.,         145.
   2495,          45.,          55.,         140.
   2496,          40.,          55.,         140.
   2497,          35.,          55.,         140.
   2498,          45.,          55.,         135.
   2499,          40.,          55.,         135.
   2500,          35.,          55.,         135.
   2501,          45.,          55.,         130.
   2502,          40.,          55.,         130.
   2503,          35.,          55.,         130.
   2504,          45.,          55.,         125.
   2505,          40.,          55.,         125.
   2506,          35.,          55.,         125.
   2507,          45.,          55.,         120.
   2508,          40.,          55.,         120.
   2509,          35.,          55.,         120.
   2510,          45.,          55.,         115.
   2511,          40.,          55.,         115.
   2512,          35.,          55.,         115.
   2513,          45.,          55.,         110.
   2514,          40.,          55.,         110.
   2515,          35.,          55.,         110.
   2516,          45.,          55.,         105.
   2517,          40.,          55.,         105.
   2518,          35.,          55.,         105.
   2519,          45.,          55.,         100.
   2520,          40.,          55.,         100.
   2521,          35.,          55.,         100.
   2522,          45.,          55.,          95.
   2523,          40.,          55.,          95.
   2524,          35.,          55.,          95.
   2525,          45.,          55.,          90.
   2526,          40.,          55.,          90.
   2527,          35.,          55.,          90.
   2528,          45.,          55.,          85.
   2529,          40.,          55.,          85.
   2530,          35.,          55.,          85.
   2531,          45.,          55.,          80.
   2532,          40.,          55.,          80.
   2533,          35.,          55.,          80.
   2534,          45.,          55.,          75.
   2535,          40.,          55.,          75.
   2536,          35.,          55.,          75.
   2537,          45.,          55.,          70.
   2538,          40.,          55.,          70.
   2539,          35.,          55.,          70.
   2540,          45.,          55.,          65.
   2541,          40.,          55.,          65.
   2542,          35.,          55.,          65.
   2543,          45.,          55.,          60.
   2544,          40.,          55.,          60.
   2545,          35.,          55.,          60.
   2546,          45.,          55.,          55.
   2547,          40.,          55.,          55.
   2548,          35.,          55.,          55.
   2549,          45.,          55.,          50.
   2550,          40.,          55.,          50.
   2551,          35.,          55.,          50.
   2552,          45.,          55.,          45.
   2553,          40.,          55.,          45.
   2554,          35.,          55.,          45.
   2555,          45.,          55.,          40.
   2556,          40.,          55.,          40.
   2557,          35.,          55.,          40.
   2558,          45.,          55.,          35.
   2559,          40.,          55.,          35.
   2560,          35.,          55.,          35.
   2561,          45.,          55.,          30.
   2562,          40.,          55.,          30.
   2563,          35.,          55.,          30.
   2564,          45.,          55.,          25.
   2565,          40.,          55.,          25.
   2566,          35.,          55.,          25.
   2567,          45.,          55.,          20.
   2568,          40.,          55.,          20.
   2569,          35.,          55.,          20.
   2570,          45.,          55.,          15.
   2571,          40.,          55.,          15.
   2572,          35.,          55.,          15.
   2573,          45.,          55.,          10.
   2574,          40.,          55.,          10.
   2575,          35.,          55.,          10.
   2576,          45.,          55.,           5.
   2577,          40.,          55.,           5.
   2578,          35.,          55.,           5.
   2579,          50.,          50.,         195.
   2580,          50.,          50.,         190.
   2581,          50.,          50.,         185.
   2582,          50.,          50.,         180.
   2583,          50.,          50.,         175.
   2584,          50.,          50.,         170.
   2585,          50.,          50.,         165.
   2586,          50.,          50.,         160.
   2587,          50.,          50.,         155.
   2588,          50.,          50.,         150.
   2589,          50.,          50.,         145.
   2590,          50.,          50.,         140.
   2591,          50.,          50.,         135.
   2592,          50.,          50.,         130.
   2593,          50.,          50.,         125.
   2594,          50.,          50.,         120.
   2595,          50.,          50.,         115.
   2596,          50.,          50.,         110.
   2597,          50.,          50.,         105.
   2598,          50.,          50.,         100.
   2599,          50.,          50.,          95.
   2600,          50.,          50.,          90.
   2601,          50.,          50.,          85.
   2602,          50.,          50.,          80.
   2603,          50.,          50.,          75.
   2604,          50.,          50.,          70.
   2605,          50.,          50.,          65.
   2606,          50.,          50.,          60.
   2607,          50.,          50.,          55.
   2608,          50.,          50.,          50.
   2609,          50.,          50.,          45.
   2610,          50.,          50.,          40.
   2611,          50.,          50.,          35.
   2612,          50.,          50.,          30.
   2613,          50.,          50.,          25.
   2614,          50.,          50.,          20.
   2615,          50.,          50.,          15.
   2616,          50.,          50.,          10.
   2617,          50.,          50.,           5.
   2618,          45.,          50.,         200.
   2619,          40.,          50.,         200.
   2620,          35.,          50.,         200.
   2621,          45.,          50.,           0.
   2622,          40.,          50.,           0.
   2623,          35.,          50.,           0.
   2624,          25.,           0.,         195.
   2625,          25.,           0.,         190.
   2626,          25.,           0.,         185.
   2627,          25.,           0.,         180.
   2628,          25.,           0.,         175.
   2629,          25.,           0.,         170.
   2630,          25.,           0.,         165.
   2631,          25.,           0.,         160.
   2632,          25.,           0.,         155.
   2633,          25.,           0.,         150.
   2634,          25.,           0.,         145.
   2635,          25.,           0.,         140.
   2636,          25.,           0.,         135.
   2637,          25.,           0.,         130.
   2638,          25.,           0.,         125.
   2639,          25.,           0.,         120.
   2640,          25.,           0.,         115.
   2641,          25.,           0.,         110.
   2642,          25.,           0.,         105.
   2643,          25.,           0.,         100.
   2644,          25.,           0.,          95.
   2645,          25.,           0.,          90.
   2646,          25.,           0.,          85.
   2647,          25.,           0.,          80.
   2648,          25.,           0.,          75.
   2649,          25.,           0.,          70.
   2650,          25.,           0.,          65.
   2651,          25.,           0.,          60.
   2652,          25.,           0.,          55.
   2653,          25.,           0.,          50.
   2654,          25.,           0.,          45.
   2655,          25.,           0.,          40.
   2656,          25.,           0.,          35.
   2657,          25.,           0.,          30.
   2658,          25.,           0.,          25.
   2659,          25.,           0.,          20.
   2660,          25.,           0.,          15.
   2661,          25.,           0.,          10.
   2662,          25.,           0.,           5.
   2663,          25.,           5.,         200.
   2664,          25.,           5.,           0.
   2665,          25.,          15.,         195.
   2666,          25.,          20.,         195.
   2667,          25.,          25.,         195.
   2668,          25.,          30.,         195.
   2669,          25.,          35.,         195.
   2670,          25.,          40.,         195.
   2671,          25.,          15.,         190.
   2672,          25.,          20.,         190.
   2673,          25.,          25.,         190.
   2674,          25.,          30.,         190.
   2675,          25.,          35.,         190.
   2676,          25.,          40.,         190.
   2677,          25.,          15.,         185.
   2678,          25.,          20.,         185.
   2679,          25.,          25.,         185.
   2680,          25.,          30.,         185.
   2681,          25.,          35.,         185.
   2682,          25.,          40.,         185.
   2683,          25.,          15.,         180.
   2684,          25.,          20.,         180.
   2685,          25.,          25.,         180.
   2686,          25.,          30.,         180.
   2687,          25.,          35.,         180.
   2688,          25.,          40.,         180.
   2689,          25.,          15.,         175.
   2690,          25.,          20.,         175.
   2691,          25.,          25.,         175.
   2692,          25.,          30.,         175.
   2693,          25.,          35.,         175.
   2694,          25.,          40.,         175.
   2695,          25.,          15.,         170.
   2696,          25.,          20.,         170.
   2697,          25.,          25.,         170.
   2698,          25.,          30.,         170.
   2699,          25.,          35.,         170.
   2700,          25.,          40.,         170.
   2701,          25.,          15.,         165.
   2702,          25.,          20.,         165.
   2703,          25.,          25.,         165.
   2704,          25.,          30.,         165.
   2705,          25.,          35.,         165.
   2706,          25.,          40.,         165.
   2707,          25.,          15.,         160.
   2708,          25.,          20.,         160.
   2709,          25.,          25.,         160.
   2710,          25.,          30.,         160.
   2711,          25.,          35.,         160.
   2712,          25.,          40.,         160.
   2713,          25.,          15.,         155.
   2714,          25.,          20.,         155.
   2715,          25.,          25.,         155.
   2716,          25.,          30.,         155.
   2717,          25.,          35.,         155.
   2718,          25.,          40.,         155.
   2719,          25.,          15.,         150.
   2720,          25.,          20.,         150.
   2721,          25.,          25.,         150.
   2722,          25.,          30.,         150.
   2723,          25.,          35.,         150.
   2724,          25.,          40.,         150.
   2725,          25.,          15.,         145.
   2726,          25.,          20.,         145.
   2727,          25.,          25.,         145.
   2728,          25.,          30.,         145.
   2729,          25.,          35.,         145.
   2730,          25.,          40.,         145.
   2731,          25.,          15.,         140.
   2732,          25.,          20.,         140.
   2733,          25.,          25.,         140.
   2734,          25.,          30.,         140.
   2735,          25.,          35.,         140.
   2736,          25.,          40.,         140.
   2737,          25.,          15.,         135.
   2738,          25.,          20.,         135.
   2739,          25.,          25.,         135.
   2740,          25.,          30.,         135.
   2741,          25.,          35.,         135.
   2742,          25.,          40.,         135.
   2743,          25.,          15.,         130.
   2744,          25.,          20.,         130.
   2745,          25.,          25.,         130.
   2746,          25.,          30.,         130.
   2747,          25.,          35.,         130.
   2748,          25.,          40.,         130.
   2749,          25.,          15.,         125.
   2750,          25.,          20.,         125.
   2751,          25.,          25.,         125.
   2752,          25.,          30.,         125.
   2753,          25.,          35.,         125.
   2754,          25.,          40.,         125.
   2755,          25.,          15.,         120.
   2756,          25.,          20.,         120.
   2757,          25.,          25.,         120.
   2758,          25.,          30.,         120.
   2759,          25.,          35.,         120.
   2760,          25.,          40.,         120.
   2761,          25.,          15.,         115.
   2762,          25.,          20.,         115.
   2763,          25.,          25.,         115.
   2764,          25.,          30.,         115.
   2765,          25.,          35.,         115.
   2766,          25.,          40.,         115.
   2767,          25.,          15.,         110.
   2768,          25.,          20.,         110.
   2769,          25.,          25.,         110.
   2770,          25.,          30.,         110.
   2771,          25.,          35.,         110.
   2772,          25.,          40.,         110.
   2773,          25.,          15.,         105.
   2774,          25.,          20.,         105.
   2775,          25.,          25.,         105.
   2776,          25.,          30.,         105.
   2777,          25.,          35.,         105.
   2778,          25.,          40.,         105.
   2779,          25.,          15.,         100.
   2780,          25.,          20.,         100.
   2781,          25.,          25.,         100.
   2782,          25.,          30.,         100.
   2783,          25.,          35.,         100.
   2784,          25.,          40.,         100.
   2785,          25.,          15.,          95.
   2786,          25.,          20.,          95.
   2787,          25.,          25.,          95.
   2788,          25.,          30.,          95.
   2789,          25.,          35.,          95.
   2790,          25.,          40.,          95.
   2791,          25.,          15.,          90.
   2792,          25.,          20.,          90.
   2793,          25.,          25.,          90.
   2794,          25.,          30.,          90.
   2795,          25.,          35.,          90.
   2796,          25.,          40.,          90.
   2797,          25.,          15.,          85.
   2798,          25.,          20.,          85.
   2799,          25.,          25.,          85.
   2800,          25.,          30.,          85.
   2801,          25.,          35.,          85.
   2802,          25.,          40.,          85.
   2803,          25.,          15.,          80.
   2804,          25.,          20.,          80.
   2805,          25.,          25.,          80.
   2806,          25.,          30.,          80.
   2807,          25.,          35.,          80.
   2808,          25.,          40.,          80.
   2809,          25.,          15.,          75.
   2810,          25.,          20.,          75.
   2811,          25.,          25.,          75.
   2812,          25.,          30.,          75.
   2813,          25.,          35.,          75.
   2814,          25.,          40.,          75.
   2815,          25.,          15.,          70.
   2816,          25.,          20.,          70.
   2817,          25.,          25.,          70.
   2818,          25.,          30.,          70.
   2819,          25.,          35.,          70.
   2820,          25.,          40.,          70.
   2821,          25.,          15.,          65.
   2822,          25.,          20.,          65.
   2823,          25.,          25.,          65.
   2824,          25.,          30.,          65.
   2825,          25.,          35.,          65.
   2826,          25.,          40.,          65.
   2827,          25.,          15.,          60.
   2828,          25.,          20.,          60.
   2829,          25.,          25.,          60.
   2830,          25.,          30.,          60.
   2831,          25.,          35.,          60.
   2832,          25.,          40.,          60.
   2833,          25.,          15.,          55.
   2834,          25.,          20.,          55.
   2835,          25.,          25.,          55.
   2836,          25.,          30.,          55.
   2837,          25.,          35.,          55.
   2838,          25.,          40.,          55.
   2839,          25.,          15.,          50.
   2840,          25.,          20.,          50.
   2841,          25.,          25.,          50.
   2842,          25.,          30.,          50.
   2843,          25.,          35.,          50.
   2844,          25.,          40.,          50.
   2845,          25.,          15.,          45.
   2846,          25.,          20.,          45.
   2847,          25.,          25.,          45.
   2848,          25.,          30.,          45.
   2849,          25.,          35.,          45.
   2850,          25.,          40.,          45.
   2851,          25.,          15.,          40.
   2852,          25.,          20.,          40.
   2853,          25.,          25.,          40.
   2854,          25.,          30.,          40.
   2855,          25.,          35.,          40.
   2856,          25.,          40.,          40.
   2857,          25.,          15.,          35.
   2858,          25.,          20.,          35.
   2859,          25.,          25.,          35.
   2860,          25.,          30.,          35.
   2861,          25.,          35.,          35.
   2862,          25.,          40.,          35.
   2863,          25.,          15.,          30.
   2864,          25.,          20.,          30.
   2865,          25.,          25.,          30.
   2866,          25.,          30.,          30.
   2867,          25.,          35.,          30.
   2868,          25.,          40.,          30.
   2869,          25.,          15.,          25.
   2870,          25.,          20.,          25.
   2871,          25.,          25.,          25.
   2872,          25.,          30.,          25.
   2873,          25.,          35.,          25.
   2874,          25.,          40.,          25.
   2875,          25.,          15.,          20.
   2876,          25.,          20.,          20.
   2877,          25.,          25.,          20.
   2878,          25.,          30.,          20.
   2879,          25.,          35.,          20.
   2880,          25.,          40.,          20.
   2881,          25.,          15.,          15.
   2882,          25.,          20.,          15.
   2883,          25.,          25.,          15.
   2884,          25.,          30.,          15.
   2885,          25.,          35.,          15.
   2886,          25.,          40.,          15.
   2887,          25.,          15.,          10.
   2888,          25.,          20.,          10.
   2889,          25.,          25.,          10.
   2890,          25.,          30.,          10.
   2891,          25.,          35.,          10.
   2892,          25.,          40.,          10.
   2893,          25.,          15.,           5.
   2894,          25.,          20.,           5.
   2895,          25.,          25.,           5.
   2896,          25.,          30.,           5.
   2897,          25.,          35.,           5.
   2898,          25.,          40.,           5.
   2899,          25.,          50.,           5.
   2900,          25.,          50.,          10.
   2901,          25.,          50.,          15.
   2902,          25.,          50.,          20.
   2903,          25.,          50.,          25.
   2904,          25.,          50.,          30.
   2905,          25.,          50.,          35.
   2906,          25.,          50.,          40.
   2907,          25.,          50.,          45.
   2908,          25.,          50.,          50.
   2909,          25.,          50.,          55.
   2910,          25.,          50.,          60.
   2911,          25.,          50.,          65.
   2912,          25.,          50.,          70.
   2913,          25.,          50.,          75.
   2914,          25.,          50.,          80.
   2915,          25.,          50.,          85.
   2916,          25.,          50.,          90.
   2917,          25.,          50.,          95.
   2918,          25.,          50.,         100.
   2919,          25.,          50.,         105.
   2920,          25.,          50.,         110.
   2921,          25.,          50.,         115.
   2922,          25.,          50.,         120.
   2923,          25.,          50.,         125.
   2924,          25.,          50.,         130.
   2925,          25.,          50.,         135.
   2926,          25.,          50.,         140.
   2927,          25.,          50.,         145.
   2928,          25.,          50.,         150.
   2929,          25.,          50.,         155.
   2930,          25.,          50.,         160.
   2931,          25.,          50.,         165.
   2932,          25.,          50.,         170.
   2933,          25.,          50.,         175.
   2934,          25.,          50.,         180.
   2935,          25.,          50.,         185.
   2936,          25.,          50.,         190.
   2937,          25.,          50.,         195.
   2938,          15.,          50.,         195.
   2939,          10.,          50.,         195.
   2940,           5.,          50.,         195.
   2941,          15.,          50.,         190.
   2942,          10.,          50.,         190.
   2943,           5.,          50.,         190.
   2944,          15.,          50.,         185.
   2945,          10.,          50.,         185.
   2946,           5.,          50.,         185.
   2947,          15.,          50.,         180.
   2948,          10.,          50.,         180.
   2949,           5.,          50.,         180.
   2950,          15.,          50.,         175.
   2951,          10.,          50.,         175.
   2952,           5.,          50.,         175.
   2953,          15.,          50.,         170.
   2954,          10.,          50.,         170.
   2955,           5.,          50.,         170.
   2956,          15.,          50.,         165.
   2957,          10.,          50.,         165.
   2958,           5.,          50.,         165.
   2959,          15.,          50.,         160.
   2960,          10.,          50.,         160.
   2961,           5.,          50.,         160.
   2962,          15.,          50.,         155.
   2963,          10.,          50.,         155.
   2964,           5.,          50.,         155.
   2965,          15.,          50.,         150.
   2966,          10.,          50.,         150.
   2967,           5.,          50.,         150.
   2968,          15.,          50.,         145.
   2969,          10.,          50.,         145.
   2970,           5.,          50.,         145.
   2971,          15.,          50.,         140.
   2972,          10.,          50.,         140.
   2973,           5.,          50.,         140.
   2974,          15.,          50.,         135.
   2975,          10.,          50.,         135.
   2976,           5.,          50.,         135.
   2977,          15.,          50.,         130.
   2978,          10.,          50.,         130.
   2979,           5.,          50.,         130.
   2980,          15.,          50.,         125.
   2981,          10.,          50.,         125.
   2982,           5.,          50.,         125.
   2983,          15.,          50.,         120.
   2984,          10.,          50.,         120.
   2985,           5.,          50.,         120.
   2986,          15.,          50.,         115.
   2987,          10.,          50.,         115.
   2988,           5.,          50.,         115.
   2989,          15.,          50.,         110.
   2990,          10.,          50.,         110.
   2991,           5.,          50.,         110.
   2992,          15.,          50.,         105.
   2993,          10.,          50.,         105.
   2994,           5.,          50.,         105.
   2995,          15.,          50.,         100.
   2996,          10.,          50.,         100.
   2997,           5.,          50.,         100.
   2998,          15.,          50.,          95.
   2999,          10.,          50.,          95.
   3000,           5.,          50.,          95.
   3001,          15.,          50.,          90.
   3002,          10.,          50.,          90.
   3003,           5.,          50.,          90.
   3004,          15.,          50.,          85.
   3005,          10.,          50.,          85.
   3006,           5.,          50.,          85.
   3007,          15.,          50.,          80.
   3008,          10.,          50.,          80.
   3009,           5.,          50.,          80.
   3010,          15.,          50.,          75.
   3011,          10.,          50.,          75.
   3012,           5.,          50.,          75.
   3013,          15.,          50.,          70.
   3014,          10.,          50.,          70.
   3015,           5.,          50.,          70.
   3016,          15.,          50.,          65.
   3017,          10.,          50.,          65.
   3018,           5.,          50.,          65.
   3019,          15.,          50.,          60.
   3020,          10.,          50.,          60.
   3021,           5.,          50.,          60.
   3022,          15.,          50.,          55.
   3023,          10.,          50.,          55.
   3024,           5.,          50.,          55.
   3025,          15.,          50.,          50.
   3026,          10.,          50.,          50.
   3027,           5.,          50.,          50.
   3028,          15.,          50.,          45.
   3029,          10.,          50.,          45.
   3030,           5.,          50.,          45.
   3031,          15.,          50.,          40.
   3032,          10.,          50.,          40.
   3033,           5.,          50.,          40.
   3034,          15.,          50.,          35.
   3035,          10.,          50.,          35.
   3036,           5.,          50.,          35.
   3037,          15.,          50.,          30.
   3038,          10.,          50.,          30.
   3039,           5.,          50.,          30.
   3040,          15.,          50.,          25.
   3041,          10.,          50.,          25.
   3042,           5.,          50.,          25.
   3043,          15.,          50.,          20.
   3044,          10.,          50.,          20.
   3045,           5.,          50.,          20.
   3046,          15.,          50.,          15.
   3047,          10.,          50.,          15.
   3048,           5.,          50.,          15.
   3049,          15.,          50.,          10.
   3050,          10.,          50.,          10.
   3051,           5.,          50.,          10.
   3052,          15.,          50.,           5.
   3053,          10.,          50.,           5.
   3054,           5.,          50.,           5.
   3055,          15.,           5.,           5.
   3056,          15.,           5.,          10.
   3057,          15.,           5.,          15.
   3058,          15.,           5.,          20.
   3059,          15.,           5.,          25.
   3060,          15.,           5.,          30.
   3061,          15.,           5.,          35.
   3062,          15.,           5.,          40.
   3063,          15.,           5.,          45.
   3064,          15.,           5.,          50.
   3065,          15.,           5.,          55.
   3066,          15.,           5.,          60.
   3067,          15.,           5.,          65.
   3068,          15.,           5.,          70.
   3069,          15.,           5.,          75.
   3070,          15.,           5.,          80.
   3071,          15.,           5.,          85.
   3072,          15.,           5.,          90.
   3073,          15.,           5.,          95.
   3074,          15.,           5.,         100.
   3075,          15.,           5.,         105.
   3076,          15.,           5.,         110.
   3077,          15.,           5.,         115.
   3078,          15.,           5.,         120.
   3079,          15.,           5.,         125.
   3080,          15.,           5.,         130.
   3081,          15.,           5.,         135.
   3082,          15.,           5.,         140.
   3083,          15.,           5.,         145.
   3084,          15.,           5.,         150.
   3085,          15.,           5.,         155.
   3086,          15.,           5.,         160.
   3087,          15.,           5.,         165.
   3088,          15.,           5.,         170.
   3089,          15.,           5.,         175.
   3090,          15.,           5.,         180.
   3091,          15.,           5.,         185.
   3092,          15.,           5.,         190.
   3093,          15.,           5.,         195.
   3094,          10.,           5.,           5.
   3095,          10.,           5.,          10.
   3096,          10.,           5.,          15.
   3097,          10.,           5.,          20.
   3098,          10.,           5.,          25.
   3099,          10.,           5.,          30.
   3100,          10.,           5.,          35.
   3101,          10.,           5.,          40.
   3102,          10.,           5.,          45.
   3103,          10.,           5.,          50.
   3104,          10.,           5.,          55.
   3105,          10.,           5.,          60.
   3106,          10.,           5.,          65.
   3107,          10.,           5.,          70.
   3108,          10.,           5.,          75.
   3109,          10.,           5.,          80.
   3110,          10.,           5.,          85.
   3111,          10.,           5.,          90.
   3112,          10.,           5.,          95.
   3113,          10.,           5.,         100.
   3114,          10.,           5.,         105.
   3115,          10.,           5.,         110.
   3116,          10.,           5.,         115.
   3117,          10.,           5.,         120.
   3118,          10.,           5.,         125.
   3119,          10.,           5.,         130.
   3120,          10.,           5.,         135.
   3121,          10.,           5.,         140.
   3122,          10.,           5.,         145.
   3123,          10.,           5.,         150.
   3124,          10.,           5.,         155.
   3125,          10.,           5.,         160.
   3126,          10.,           5.,         165.
   3127,          10.,           5.,         170.
   3128,          10.,           5.,         175.
   3129,          10.,           5.,         180.
   3130,          10.,           5.,         185.
   3131,          10.,           5.,         190.
   3132,          10.,           5.,         195.
   3133,           5.,           5.,           5.
   3134,           5.,           5.,          10.
   3135,           5.,           5.,          15.
   3136,           5.,           5.,          20.
   3137,           5.,           5.,          25.
   3138,           5.,           5.,          30.
   3139,           5.,           5.,          35.
   3140,           5.,           5.,          40.
   3141,           5.,           5.,          45.
   3142,           5.,           5.,          50.
   3143,           5.,           5.,          55.
   3144,           5.,           5.,          60.
   3145,           5.,           5.,          65.
   3146,           5.,           5.,          70.
   3147,           5.,           5.,          75.
   3148,           5.,           5.,          80.
   3149,           5.,           5.,          85.
   3150,           5.,           5.,          90.
   3151,           5.,           5.,          95.
   3152,           5.,           5.,         100.
   3153,           5.,           5.,         105.
   3154,           5.,           5.,         110.
   3155,           5.,           5.,         115.
   3156,           5.,           5.,         120.
   3157,           5.,           5.,         125.
   3158,           5.,           5.,         130.
   3159,           5.,           5.,         135.
   3160,           5.,           5.,         140.
   3161,           5.,           5.,         145.
   3162,           5.,           5.,         150.
   3163,           5.,           5.,         155.
   3164,           5.,           5.,         160.
   3165,           5.,           5.,         165.
   3166,           5.,           5.,         170.
   3167,           5.,           5.,         175.
   3168,           5.,           5.,         180.
   3169,           5.,           5.,         185.
   3170,           5.,           5.,         190.
   3171,           5.,           5.,         195.
   3172,          35.,           5.,         195.
   3173,          40.,           5.,         195.
   3174,          45.,           5.,         195.
   3175,          35.,           5.,         190.
   3176,          40.,           5.,         190.
   3177,          45.,           5.,         190.
   3178,          35.,           5.,         185.
   3179,          40.,           5.,         185.
   3180,          45.,           5.,         185.
   3181,          35.,           5.,         180.
   3182,          40.,           5.,         180.
   3183,          45.,           5.,         180.
   3184,          35.,           5.,         175.
   3185,          40.,           5.,         175.
   3186,          45.,           5.,         175.
   3187,          35.,           5.,         170.
   3188,          40.,           5.,         170.
   3189,          45.,           5.,         170.
   3190,          35.,           5.,         165.
   3191,          40.,           5.,         165.
   3192,          45.,           5.,         165.
   3193,          35.,           5.,         160.
   3194,          40.,           5.,         160.
   3195,          45.,           5.,         160.
   3196,          35.,           5.,         155.
   3197,          40.,           5.,         155.
   3198,          45.,           5.,         155.
   3199,          35.,           5.,         150.
   3200,          40.,           5.,         150.
   3201,          45.,           5.,         150.
   3202,          35.,           5.,         145.
   3203,          40.,           5.,         145.
   3204,          45.,           5.,         145.
   3205,          35.,           5.,         140.
   3206,          40.,           5.,         140.
   3207,          45.,           5.,         140.
   3208,          35.,           5.,         135.
   3209,          40.,           5.,         135.
   3210,          45.,           5.,         135.
   3211,          35.,           5.,         130.
   3212,          40.,           5.,         130.
   3213,          45.,           5.,         130.
   3214,          35.,           5.,         125.
   3215,          40.,           5.,         125.
   3216,          45.,           5.,         125.
   3217,          35.,           5.,         120.
   3218,          40.,           5.,         120.
   3219,          45.,           5.,         120.
   3220,          35.,           5.,         115.
   3221,          40.,           5.,         115.
   3222,          45.,           5.,         115.
   3223,          35.,           5.,         110.
   3224,          40.,           5.,         110.
   3225,          45.,           5.,         110.
   3226,          35.,           5.,         105.
   3227,          40.,           5.,         105.
   3228,          45.,           5.,         105.
   3229,          35.,           5.,         100.
   3230,          40.,           5.,         100.
   3231,          45.,           5.,         100.
   3232,          35.,           5.,          95.
   3233,          40.,           5.,          95.
   3234,          45.,           5.,          95.
   3235,          35.,           5.,          90.
   3236,          40.,           5.,          90.
   3237,          45.,           5.,          90.
   3238,          35.,           5.,          85.
   3239,          40.,           5.,          85.
   3240,          45.,           5.,          85.
   3241,          35.,           5.,          80.
   3242,          40.,           5.,          80.
   3243,          45.,           5.,          80.
   3244,          35.,           5.,          75.
   3245,          40.,           5.,          75.
   3246,          45.,           5.,          75.
   3247,          35.,           5.,          70.
   3248,          40.,           5.,          70.
   3249,          45.,           5.,          70.
   3250,          35.,           5.,          65.
   3251,          40.,           5.,          65.
   3252,          45.,           5.,          65.
   3253,          35.,           5.,          60.
   3254,          40.,           5.,          60.
   3255,          45.,           5.,          60.
   3256,          35.,           5.,          55.
   3257,          40.,           5.,          55.
   3258,          45.,           5.,          55.
   3259,          35.,           5.,          50.
   3260,          40.,           5.,          50.
   3261,          45.,           5.,          50.
   3262,          35.,           5.,          45.
   3263,          40.,           5.,          45.
   3264,          45.,           5.,          45.
   3265,          35.,           5.,          40.
   3266,          40.,           5.,          40.
   3267,          45.,           5.,          40.
   3268,          35.,           5.,          35.
   3269,          40.,           5.,          35.
   3270,          45.,           5.,          35.
   3271,          35.,           5.,          30.
   3272,          40.,           5.,          30.
   3273,          45.,           5.,          30.
   3274,          35.,           5.,          25.
   3275,          40.,           5.,          25.
   3276,          45.,           5.,          25.
   3277,          35.,           5.,          20.
   3278,          40.,           5.,          20.
   3279,          45.,           5.,          20.
   3280,          35.,           5.,          15.
   3281,          40.,           5.,          15.
   3282,          45.,           5.,          15.
   3283,          35.,           5.,          10.
   3284,          40.,           5.,          10.
   3285,          45.,           5.,          10.
   3286,          35.,           5.,           5.
   3287,          40.,           5.,           5.
   3288,          45.,           5.,           5.
   3289,          45.,          50.,         195.
   3290,          40.,          50.,         195.
   3291,          35.,          50.,         195.
   3292,          45.,          50.,         190.
   3293,          40.,          50.,         190.
   3294,          35.,          50.,         190.
   3295,          45.,          50.,         185.
   3296,          40.,          50.,         185.
   3297,          35.,          50.,         185.
   3298,          45.,          50.,         180.
   3299,          40.,          50.,         180.
   3300,          35.,          50.,         180.
   3301,          45.,          50.,         175.
   3302,          40.,          50.,         175.
   3303,          35.,          50.,         175.
   3304,          45.,          50.,         170.
   3305,          40.,          50.,         170.
   3306,          35.,          50.,         170.
   3307,          45.,          50.,         165.
   3308,          40.,          50.,         165.
   3309,          35.,          50.,         165.
   3310,          45.,          50.,         160.
   3311,          40.,          50.,         160.
   3312,          35.,          50.,         160.
   3313,          45.,          50.,         155.
   3314,          40.,          50.,         155.
   3315,          35.,          50.,         155.
   3316,          45.,          50.,         150.
   3317,          40.,          50.,         150.
   3318,          35.,          50.,         150.
   3319,          45.,          50.,         145.
   3320,          40.,          50.,         145.
   3321,          35.,          50.,         145.
   3322,          45.,          50.,         140.
   3323,          40.,          50.,         140.
   3324,          35.,          50.,         140.
   3325,          45.,          50.,         135.
   3326,          40.,          50.,         135.
   3327,          35.,          50.,         135.
   3328,          45.,          50.,         130.
   3329,          40.,          50.,         130.
   3330,          35.,          50.,         130.
   3331,          45.,          50.,         125.
   3332,          40.,          50.,         125.
   3333,          35.,          50.,         125.
   3334,          45.,          50.,         120.
   3335,          40.,          50.,         120.
   3336,          35.,          50.,         120.
   3337,          45.,          50.,         115.
   3338,          40.,          50.,         115.
   3339,          35.,          50.,         115.
   3340,          45.,          50.,         110.
   3341,          40.,          50.,         110.
   3342,          35.,          50.,         110.
   3343,          45.,          50.,         105.
   3344,          40.,          50.,         105.
   3345,          35.,          50.,         105.
   3346,          45.,          50.,         100.
   3347,          40.,          50.,         100.
   3348,          35.,          50.,         100.
   3349,          45.,          50.,          95.
   3350,          40.,          50.,          95.
   3351,          35.,          50.,          95.
   3352,          45.,          50.,          90.
   3353,          40.,          50.,          90.
   3354,          35.,          50.,          90.
   3355,          45.,          50.,          85.
   3356,          40.,          50.,          85.
   3357,          35.,          50.,          85.
   3358,          45.,          50.,          80.
   3359,          40.,          50.,          80.
   3360,          35.,          50.,          80.
   3361,          45.,          50.,          75.
   3362,          40.,          50.,          75.
   3363,          35.,          50.,          75.
   3364,          45.,          50.,          70.
   3365,          40.,          50.,          70.
   3366,          35.,          50.,          70.
   3367,          45.,          50.,          65.
   3368,          40.,          50.,          65.
   3369,          35.,          50.,          65.
   3370,          45.,          50.,          60.
   3371,          40.,          50.,          60.
   3372,          35.,          50.,          60.
   3373,          45.,          50.,          55.
   3374,          40.,          50.,          55.
   3375,          35.,          50.,          55.
   3376,          45.,          50.,          50.
   3377,          40.,          50.,          50.
   3378,          35.,          50.,          50.
   3379,          45.,          50.,          45.
   3380,          40.,          50.,          45.
   3381,          35.,          50.,          45.
   3382,          45.,          50.,          40.
   3383,          40.,          50.,          40.
   3384,          35.,          50.,          40.
   3385,          45.,          50.,          35.
   3386,          40.,          50.,          35.
   3387,          35.,          50.,          35.
   3388,          45.,          50.,          30.
   3389,          40.,          50.,          30.
   3390,          35.,          50.,          30.
   3391,          45.,          50.,          25.
   3392,          40.,          50.,          25.
   3393,          35.,          50.,          25.
   3394,          45.,          50.,          20.
   3395,          40.,          50.,          20.
   3396,          35.,          50.,          20.
   3397,          45.,          50.,          15.
   3398,          40.,          50.,          15.
   3399,          35.,          50.,          15.
   3400,          45.,          50.,          10.
   3401,          40.,          50.,          10.
   3402,          35.,          50.,          10.
   3403,          45.,          50.,           5.
   3404,          40.,          50.,           5.
   3405,          35.,          50.,           5.
   3406,          25.,           5.,         195.
   3407,          25.,           5.,         190.
   3408,          25.,           5.,         185.
   3409,          25.,           5.,         180.
   3410,          25.,           5.,         175.
   3411,          25.,           5.,         170.
   3412,          25.,           5.,         165.
   3413,          25.,           5.,         160.
   3414,          25.,           5.,         155.
   3415,          25.,           5.,         150.
   3416,          25.,           5.,         145.
   3417,          25.,           5.,         140.
   3418,          25.,           5.,         135.
   3419,          25.,           5.,         130.
   3420,          25.,           5.,         125.
   3421,          25.,           5.,         120.
   3422,          25.,           5.,         115.
   3423,          25.,           5.,         110.
   3424,          25.,           5.,         105.
   3425,          25.,           5.,         100.
   3426,          25.,           5.,          95.
   3427,          25.,           5.,          90.
   3428,          25.,           5.,          85.
   3429,          25.,           5.,          80.
   3430,          25.,           5.,          75.
   3431,          25.,           5.,          70.
   3432,          25.,           5.,          65.
   3433,          25.,           5.,          60.
   3434,          25.,           5.,          55.
   3435,          25.,           5.,          50.
   3436,          25.,           5.,          45.
   3437,          25.,           5.,          40.
   3438,          25.,           5.,          35.
   3439,          25.,           5.,          30.
   3440,          25.,           5.,          25.
   3441,          25.,           5.,          20.
   3442,          25.,           5.,          15.
   3443,          25.,           5.,          10.
   3444,          25.,           5.,           5.
*Element, type=C3D8
  1,  214, 1299, 2665, 1221,    1,   33,  753,  122
  2, 1299, 1300, 2666, 2665,   33,   34,  754,  753
  3, 1300, 1301, 2667, 2666,   34,   35,  755,  754
  4, 1301, 1302, 2668, 2667,   35,   36,  756,  755
  5, 1302, 1303, 2669, 2668,   36,   37,  757,  756
  6, 1303, 1304, 2670, 2669,   37,   38,  758,  757
  7, 1304,  216, 1260, 2670,   38,    2,   39,  758
  8, 1221, 2665, 2671, 1222,  122,  753,  759,  121
  9, 2665, 2666, 2672, 2671,  753,  754,  760,  759
 10, 2666, 2667, 2673, 2672,  754,  755,  761,  760
 11, 2667, 2668, 2674, 2673,  755,  756,  762,  761
 12, 2668, 2669, 2675, 2674,  756,  757,  763,  762
 13, 2669, 2670, 2676, 2675,  757,  758,  764,  763
 14, 2670, 1260, 1261, 2676,  758,   39,   40,  764
 15, 1222, 2671, 2677, 1223,  121,  759,  765,  120
 16, 2671, 2672, 2678, 2677,  759,  760,  766,  765
 17, 2672, 2673, 2679, 2678,  760,  761,  767,  766
 18, 2673, 2674, 2680, 2679,  761,  762,  768,  767
 19, 2674, 2675, 2681, 2680,  762,  763,  769,  768
 20, 2675, 2676, 2682, 2681,  763,  764,  770,  769
 21, 2676, 1261, 1262, 2682,  764,   40,   41,  770
 22, 1223, 2677, 2683, 1224,  120,  765,  771,  119
 23, 2677, 2678, 2684, 2683,  765,  766,  772,  771
 24, 2678, 2679, 2685, 2684,  766,  767,  773,  772
 25, 2679, 2680, 2686, 2685,  767,  768,  774,  773
 26, 2680, 2681, 2687, 2686,  768,  769,  775,  774
 27, 2681, 2682, 2688, 2687,  769,  770,  776,  775
 28, 2682, 1262, 1263, 2688,  770,   41,   42,  776
 29, 1224, 2683, 2689, 1225,  119,  771,  777,  118
 30, 2683, 2684, 2690, 2689,  771,  772,  778,  777
 31, 2684, 2685, 2691, 2690,  772,  773,  779,  778
 32, 2685, 2686, 2692, 2691,  773,  774,  780,  779
 33, 2686, 2687, 2693, 2692,  774,  775,  781,  780
 34, 2687, 2688, 2694, 2693,  775,  776,  782,  781
 35, 2688, 1263, 1264, 2694,  776,   42,   43,  782
 36, 1225, 2689, 2695, 1226,  118,  777,  783,  117
 37, 2689, 2690, 2696, 2695,  777,  778,  784,  783
 38, 2690, 2691, 2697, 2696,  778,  779,  785,  784
 39, 2691, 2692, 2698, 2697,  779,  780,  786,  785
 40, 2692, 2693, 2699, 2698,  780,  781,  787,  786
 41, 2693, 2694, 2700, 2699,  781,  782,  788,  787
 42, 2694, 1264, 1265, 2700,  782,   43,   44,  788
 43, 1226, 2695, 2701, 1227,  117,  783,  789,  116
 44, 2695, 2696, 2702, 2701,  783,  784,  790,  789
 45, 2696, 2697, 2703, 2702,  784,  785,  791,  790
 46, 2697, 2698, 2704, 2703,  785,  786,  792,  791
 47, 2698, 2699, 2705, 2704,  786,  787,  793,  792
 48, 2699, 2700, 2706, 2705,  787,  788,  794,  793
 49, 2700, 1265, 1266, 2706,  788,   44,   45,  794
 50, 1227, 2701, 2707, 1228,  116,  789,  795,  115
 51, 2701, 2702, 2708, 2707,  789,  790,  796,  795
 52, 2702, 2703, 2709, 2708,  790,  791,  797,  796
 53, 2703, 2704, 2710, 2709,  791,  792,  798,  797
 54, 2704, 2705, 2711, 2710,  792,  793,  799,  798
 55, 2705, 2706, 2712, 2711,  793,  794,  800,  799
 56, 2706, 1266, 1267, 2712,  794,   45,   46,  800
 57, 1228, 2707, 2713, 1229,  115,  795,  801,  114
 58, 2707, 2708, 2714, 2713,  795,  796,  802,  801
 59, 2708, 2709, 2715, 2714,  796,  797,  803,  802
 60, 2709, 2710, 2716, 2715,  797,  798,  804,  803
 61, 2710, 2711, 2717, 2716,  798,  799,  805,  804
 62, 2711, 2712, 2718, 2717,  799,  800,  806,  805
 63, 2712, 1267, 1268, 2718,  800,   46,   47,  806
 64, 1229, 2713, 2719, 1230,  114,  801,  807,  113
 65, 2713, 2714, 2720, 2719,  801,  802,  808,  807
 66, 2714, 2715, 2721, 2720,  802,  803,  809,  808
 67, 2715, 2716, 2722, 2721,  803,  804,  810,  809
 68, 2716, 2717, 2723, 2722,  804,  805,  811,  810
 69, 2717, 2718, 2724, 2723,  805,  806,  812,  811
 70, 2718, 1268, 1269, 2724,  806,   47,   48,  812
 71, 1230, 2719, 2725, 1231,  113,  807,  813,  112
 72, 2719, 2720, 2726, 2725,  807,  808,  814,  813
 73, 2720, 2721, 2727, 2726,  808,  809,  815,  814
 74, 2721, 2722, 2728, 2727,  809,  810,  816,  815
 75, 2722, 2723, 2729, 2728,  810,  811,  817,  816
 76, 2723, 2724, 2730, 2729,  811,  812,  818,  817
 77, 2724, 1269, 1270, 2730,  812,   48,   49,  818
 78, 1231, 2725, 2731, 1232,  112,  813,  819,  111
 79, 2725, 2726, 2732, 2731,  813,  814,  820,  819
 80, 2726, 2727, 2733, 2732,  814,  815,  821,  820
 81, 2727, 2728, 2734, 2733,  815,  816,  822,  821
 82, 2728, 2729, 2735, 2734,  816,  817,  823,  822
 83, 2729, 2730, 2736, 2735,  817,  818,  824,  823
 84, 2730, 1270, 1271, 2736,  818,   49,   50,  824
 85, 1232, 2731, 2737, 1233,  111,  819,  825,  110
 86, 2731, 2732, 2738, 2737,  819,  820,  826,  825
 87, 2732, 2733, 2739, 2738,  820,  821,  827,  826
 88, 2733, 2734, 2740, 2739,  821,  822,  828,  827
 89, 2734, 2735, 2741, 2740,  822,  823,  829,  828
 90, 2735, 2736, 2742, 2741,  823,  824,  830,  829
 91, 2736, 1271, 1272, 2742,  824,   50,   51,  830
 92, 1233, 2737, 2743, 1234,  110,  825,  831,  109
 93, 2737, 2738, 2744, 2743,  825,  826,  832,  831
 94, 2738, 2739, 2745, 2744,  826,  827,  833,  832
 95, 2739, 2740, 2746, 2745,  827,  828,  834,  833
 96, 2740, 2741, 2747, 2746,  828,  829,  835,  834
 97, 2741, 2742, 2748, 2747,  829,  830,  836,  835
 98, 2742, 1272, 1273, 2748,  830,   51,   52,  836
 99, 1234, 2743, 2749, 1235,  109,  831,  837,  108
100, 2743, 2744, 2750, 2749,  831,  832,  838,  837
101, 2744, 2745, 2751, 2750,  832,  833,  839,  838
102, 2745, 2746, 2752, 2751,  833,  834,  840,  839
103, 2746, 2747, 2753, 2752,  834,  835,  841,  840
104, 2747, 2748, 2754, 2753,  835,  836,  842,  841
105, 2748, 1273, 1274, 2754,  836,   52,   53,  842
106, 1235, 2749, 2755, 1236,  108,  837,  843,  107
107, 2749, 2750, 2756, 2755,  837,  838,  844,  843
108, 2750, 2751, 2757, 2756,  838,  839,  845,  844
109, 2751, 2752, 2758, 2757,  839,  840,  846,  845
110, 2752, 2753, 2759, 2758,  840,  841,  847,  846
111, 2753, 2754, 2760, 2759,  841,  842,  848,  847
112, 2754, 1274, 1275, 2760,  842,   53,   54,  848
113, 1236, 2755, 2761, 1237,  107,  843,  849,  106
114, 2755, 2756, 2762, 2761,  843,  844,  850,  849
115, 2756, 2757, 2763, 2762,  844,  845,  851,  850
116, 2757, 2758, 2764, 2763,  845,  846,  852,  851
117, 2758, 2759, 2765, 2764,  846,  847,  853,  852
118, 2759, 2760, 2766, 2765,  847,  848,  854,  853
119, 2760, 1275, 1276, 2766,  848,   54,   55,  854
120, 1237, 2761, 2767, 1238,  106,  849,  855,  105
121, 2761, 2762, 2768, 2767,  849,  850,  856,  855
122, 2762, 2763, 2769, 2768,  850,  851,  857,  856
123, 2763, 2764, 2770, 2769,  851,  852,  858,  857
124, 2764, 2765, 2771, 2770,  852,  853,  859,  858
125, 2765, 2766, 2772, 2771,  853,  854,  860,  859
126, 2766, 1276, 1277, 2772,  854,   55,   56,  860
127, 1238, 2767, 2773, 1239,  105,  855,  861,  104
128, 2767, 2768, 2774, 2773,  855,  856,  862,  861
129, 2768, 2769, 2775, 2774,  856,  857,  863,  862
130, 2769, 2770, 2776, 2775,  857,  858,  864,  863
131, 2770, 2771, 2777, 2776,  858,  859,  865,  864
132, 2771, 2772, 2778, 2777,  859,  860,  866,  865
133, 2772, 1277, 1278, 2778,  860,   56,   57,  866
134, 1239, 2773, 2779, 1240,  104,  861,  867,  103
135, 2773, 2774, 2780, 2779,  861,  862,  868,  867
136, 2774, 2775, 2781, 2780,  862,  863,  869,  868
137, 2775, 2776, 2782, 2781,  863,  864,  870,  869
138, 2776, 2777, 2783, 2782,  864,  865,  871,  870
139, 2777, 2778, 2784, 2783,  865,  866,  872,  871
140, 2778, 1278, 1279, 2784,  866,   57,   58,  872
141, 1240, 2779, 2785, 1241,  103,  867,  873,  102
142, 2779, 2780, 2786, 2785,  867,  868,  874,  873
143, 2780, 2781, 2787, 2786,  868,  869,  875,  874
144, 2781, 2782, 2788, 2787,  869,  870,  876,  875
145, 2782, 2783, 2789, 2788,  870,  871,  877,  876
146, 2783, 2784, 2790, 2789,  871,  872,  878,  877
147, 2784, 1279, 1280, 2790,  872,   58,   59,  878
148, 1241, 2785, 2791, 1242,  102,  873,  879,  101
149, 2785, 2786, 2792, 2791,  873,  874,  880,  879
150, 2786, 2787, 2793, 2792,  874,  875,  881,  880
151, 2787, 2788, 2794, 2793,  875,  876,  882,  881
152, 2788, 2789, 2795, 2794,  876,  877,  883,  882
153, 2789, 2790, 2796, 2795,  877,  878,  884,  883
154, 2790, 1280, 1281, 2796,  878,   59,   60,  884
155, 1242, 2791, 2797, 1243,  101,  879,  885,  100
156, 2791, 2792, 2798, 2797,  879,  880,  886,  885
157, 2792, 2793, 2799, 2798,  880,  881,  887,  886
158, 2793, 2794, 2800, 2799,  881,  882,  888,  887
159, 2794, 2795, 2801, 2800,  882,  883,  889,  888
160, 2795, 2796, 2802, 2801,  883,  884,  890,  889
161, 2796, 1281, 1282, 2802,  884,   60,   61,  890
162, 1243, 2797, 2803, 1244,  100,  885,  891,   99
163, 2797, 2798, 2804, 2803,  885,  886,  892,  891
164, 2798, 2799, 2805, 2804,  886,  887,  893,  892
165, 2799, 2800, 2806, 2805,  887,  888,  894,  893
166, 2800, 2801, 2807, 2806,  888,  889,  895,  894
167, 2801, 2802, 2808, 2807,  889,  890,  896,  895
168, 2802, 1282, 1283, 2808,  890,   61,   62,  896
169, 1244, 2803, 2809, 1245,   99,  891,  897,   98
170, 2803, 2804, 2810, 2809,  891,  892,  898,  897
171, 2804, 2805, 2811, 2810,  892,  893,  899,  898
172, 2805, 2806, 2812, 2811,  893,  894,  900,  899
173, 2806, 2807, 2813, 2812,  894,  895,  901,  900
174, 2807, 2808, 2814, 2813,  895,  896,  902,  901
175, 2808, 1283, 1284, 2814,  896,   62,   63,  902
176, 1245, 2809, 2815, 1246,   98,  897,  903,   97
177, 2809, 2810, 2816, 2815,  897,  898,  904,  903
178, 2810, 2811, 2817, 2816,  898,  899,  905,  904
179, 2811, 2812, 2818, 2817,  899,  900,  906,  905
180, 2812, 2813, 2819, 2818,  900,  901,  907,  906
181, 2813, 2814, 2820, 2819,  901,  902,  908,  907
182, 2814, 1284, 1285, 2820,  902,   63,   64,  908
183, 1246, 2815, 2821, 1247,   97,  903,  909,   96
184, 2815, 2816, 2822, 2821,  903,  904,  910,  909
185, 2816, 2817, 2823, 2822,  904,  905,  911,  910
186, 2817, 2818, 2824, 2823,  905,  906,  912,  911
187, 2818, 2819, 2825, 2824,  906,  907,  913,  912
188, 2819, 2820, 2826, 2825,  907,  908,  914,  913
189, 2820, 1285, 1286, 2826,  908,   64,   65,  914
190, 1247, 2821, 2827, 1248,   96,  909,  915,   95
191, 2821, 2822, 2828, 2827,  909,  910,  916,  915
192, 2822, 2823, 2829, 2828,  910,  911,  917,  916
193, 2823, 2824, 2830, 2829,  911,  912,  918,  917
194, 2824, 2825, 2831, 2830,  912,  913,  919,  918
195, 2825, 2826, 2832, 2831,  913,  914,  920,  919
196, 2826, 1286, 1287, 2832,  914,   65,   66,  920
197, 1248, 2827, 2833, 1249,   95,  915,  921,   94
198, 2827, 2828, 2834, 2833,  915,  916,  922,  921
199, 2828, 2829, 2835, 2834,  916,  917,  923,  922
200, 2829, 2830, 2836, 2835,  917,  918,  924,  923
201, 2830, 2831, 2837, 2836,  918,  919,  925,  924
202, 2831, 2832, 2838, 2837,  919,  920,  926,  925
203, 2832, 1287, 1288, 2838,  920,   66,   67,  926
204, 1249, 2833, 2839, 1250,   94,  921,  927,   93
205, 2833, 2834, 2840, 2839,  921,  922,  928,  927
206, 2834, 2835, 2841, 2840,  922,  923,  929,  928
207, 2835, 2836, 2842, 2841,  923,  924,  930,  929
208, 2836, 2837, 2843, 2842,  924,  925,  931,  930
209, 2837, 2838, 2844, 2843,  925,  926,  932,  931
210, 2838, 1288, 1289, 2844,  926,   67,   68,  932
211, 1250, 2839, 2845, 1251,   93,  927,  933,   92
212, 2839, 2840, 2846, 2845,  927,  928,  934,  933
213, 2840, 2841, 2847, 2846,  928,  929,  935,  934
214, 2841, 2842, 2848, 2847,  929,  930,  936,  935
215, 2842, 2843, 2849, 2848,  930,  931,  937,  936
216, 2843, 2844, 2850, 2849,  931,  932,  938,  937
217, 2844, 1289, 1290, 2850,  932,   68,   69,  938
218, 1251, 2845, 2851, 1252,   92,  933,  939,   91
219, 2845, 2846, 2852, 2851,  933,  934,  940,  939
220, 2846, 2847, 2853, 2852,  934,  935,  941,  940
221, 2847, 2848, 2854, 2853,  935,  936,  942,  941
222, 2848, 2849, 2855, 2854,  936,  937,  943,  942
223, 2849, 2850, 2856, 2855,  937,  938,  944,  943
224, 2850, 1290, 1291, 2856,  938,   69,   70,  944
225, 1252, 2851, 2857, 1253,   91,  939,  945,   90
226, 2851, 2852, 2858, 2857,  939,  940,  946,  945
227, 2852, 2853, 2859, 2858,  940,  941,  947,  946
228, 2853, 2854, 2860, 2859,  941,  942,  948,  947
229, 2854, 2855, 2861, 2860,  942,  943,  949,  948
230, 2855, 2856, 2862, 2861,  943,  944,  950,  949
231, 2856, 1291, 1292, 2862,  944,   70,   71,  950
232, 1253, 2857, 2863, 1254,   90,  945,  951,   89
233, 2857, 2858, 2864, 2863,  945,  946,  952,  951
234, 2858, 2859, 2865, 2864,  946,  947,  953,  952
235, 2859, 2860, 2866, 2865,  947,  948,  954,  953
236, 2860, 2861, 2867, 2866,  948,  949,  955,  954
237, 2861, 2862, 2868, 2867,  949,  950,  956,  955
238, 2862, 1292, 1293, 2868,  950,   71,   72,  956
239, 1254, 2863, 2869, 1255,   89,  951,  957,   88
240, 2863, 2864, 2870, 2869,  951,  952,  958,  957
241, 2864, 2865, 2871, 2870,  952,  953,  959,  958
242, 2865, 2866, 2872, 2871,  953,  954,  960,  959
243, 2866, 2867, 2873, 2872,  954,  955,  961,  960
244, 2867, 2868, 2874, 2873,  955,  956,  962,  961
245, 2868, 1293, 1294, 2874,  956,   72,   73,  962
246, 1255, 2869, 2875, 1256,   88,  957,  963,   87
247, 2869, 2870, 2876, 2875,  957,  958,  964,  963
248, 2870, 2871, 2877, 2876,  958,  959,  965,  964
249, 2871, 2872, 2878, 2877,  959,  960,  966,  965
250, 2872, 2873, 2879, 2878,  960,  961,  967,  966
251, 2873, 2874, 2880, 2879,  961,  962,  968,  967
252, 2874, 1294, 1295, 2880,  962,   73,   74,  968
253, 1256, 2875, 2881, 1257,   87,  963,  969,   86
254, 2875, 2876, 2882, 2881,  963,  964,  970,  969
255, 2876, 2877, 2883, 2882,  964,  965,  971,  970
256, 2877, 2878, 2884, 2883,  965,  966,  972,  971
257, 2878, 2879, 2885, 2884,  966,  967,  973,  972
258, 2879, 2880, 2886, 2885,  967,  968,  974,  973
259, 2880, 1295, 1296, 2886,  968,   74,   75,  974
260, 1257, 2881, 2887, 1258,   86,  969,  975,   85
261, 2881, 2882, 2888, 2887,  969,  970,  976,  975
262, 2882, 2883, 2889, 2888,  970,  971,  977,  976
263, 2883, 2884, 2890, 2889,  971,  972,  978,  977
264, 2884, 2885, 2891, 2890,  972,  973,  979,  978
265, 2885, 2886, 2892, 2891,  973,  974,  980,  979
266, 2886, 1296, 1297, 2892,  974,   75,   76,  980
267, 1258, 2887, 2893, 1259,   85,  975,  981,   84
268, 2887, 2888, 2894, 2893,  975,  976,  982,  981
269, 2888, 2889, 2895, 2894,  976,  977,  983,  982
270, 2889, 2890, 2896, 2895,  977,  978,  984,  983
271, 2890, 2891, 2897, 2896,  978,  979,  985,  984
272, 2891, 2892, 2898, 2897,  979,  980,  986,  985
273, 2892, 1297, 1298, 2898,  980,   76,   77,  986
274, 1259, 2893, 1305,  213,   84,  981,   83,    4
275, 2893, 2894, 1306, 1305,  981,  982,   82,   83
276, 2894, 2895, 1307, 1306,  982,  983,   81,   82
277, 2895, 2896, 1308, 1307,  983,  984,   80,   81
278, 2896, 2897, 1309, 1308,  984,  985,   79,   80
279, 2897, 2898, 1310, 1309,  985,  986,   78,   79
280, 2898, 1298,  215, 1310,  986,   77,    3,   78
281,    8,  128,  987,  174,  214, 1299, 2665, 1221
282,  128,  127,  988,  987, 1299, 1300, 2666, 2665
283,  127,  126,  989,  988, 1300, 1301, 2667, 2666
284,  126,  125,  990,  989, 1301, 1302, 2668, 2667
285,  125,  124,  991,  990, 1302, 1303, 2669, 2668
286,  124,  123,  992,  991, 1303, 1304, 2670, 2669
287,  123,    5,  167,  992, 1304,  216, 1260, 2670
288,  174,  987,  993,  175, 1221, 2665, 2671, 1222
289,  987,  988,  994,  993, 2665, 2666, 2672, 2671
290,  988,  989,  995,  994, 2666, 2667, 2673, 2672
291,  989,  990,  996,  995, 2667, 2668, 2674, 2673
292,  990,  991,  997,  996, 2668, 2669, 2675, 2674
293,  991,  992,  998,  997, 2669, 2670, 2676, 2675
294,  992,  167,  166,  998, 2670, 1260, 1261, 2676
295,  175,  993,  999,  176, 1222, 2671, 2677, 1223
296,  993,  994, 1000,  999, 2671, 2672, 2678, 2677
297,  994,  995, 1001, 1000, 2672, 2673, 2679, 2678
298,  995,  996, 1002, 1001, 2673, 2674, 2680, 2679
299,  996,  997, 1003, 1002, 2674, 2675, 2681, 2680
300,  997,  998, 1004, 1003, 2675, 2676, 2682, 2681
301,  998,  166,  165, 1004, 2676, 1261, 1262, 2682
302,  176,  999, 1005,  177, 1223, 2677, 2683, 1224
303,  999, 1000, 1006, 1005, 2677, 2678, 2684, 2683
304, 1000, 1001, 1007, 1006, 2678, 2679, 2685, 2684
305, 1001, 1002, 1008, 1007, 2679, 2680, 2686, 2685
306, 1002, 1003, 1009, 1008, 2680, 2681, 2687, 2686
307, 1003, 1004, 1010, 1009, 2681, 2682, 2688, 2687
308, 1004,  165,  164, 1010, 2682, 1262, 1263, 2688
309,  177, 1005, 1011,  178, 1224, 2683, 2689, 1225
310, 1005, 1006, 1012, 1011, 2683, 2684, 2690, 2689
311, 1006, 1007, 1013, 1012, 2684, 2685, 2691, 2690
312, 1007, 1008, 1014, 1013, 2685, 2686, 2692, 2691
313, 1008, 1009, 1015, 1014, 2686, 2687, 2693, 2692
314, 1009, 1010, 1016, 1015, 2687, 2688, 2694, 2693
315, 1010,  164,  163, 1016, 2688, 1263, 1264, 2694
316,  178, 1011, 1017,  179, 1225, 2689, 2695, 1226
317, 1011, 1012, 1018, 1017, 2689, 2690, 2696, 2695
318, 1012, 1013, 1019, 1018, 2690, 2691, 2697, 2696
319, 1013, 1014, 1020, 1019, 2691, 2692, 2698, 2697
320, 1014, 1015, 1021, 1020, 2692, 2693, 2699, 2698
321, 1015, 1016, 1022, 1021, 2693, 2694, 2700, 2699
322, 1016,  163,  162, 1022, 2694, 1264, 1265, 2700
323,  179, 1017, 1023,  180, 1226, 2695, 2701, 1227
324, 1017, 1018, 1024, 1023, 2695, 2696, 2702, 2701
325, 1018, 1019, 1025, 1024, 2696, 2697, 2703, 2702
326, 1019, 1020, 1026, 1025, 2697, 2698, 2704, 2703
327, 1020, 1021, 1027, 1026, 2698, 2699, 2705, 2704
328, 1021, 1022, 1028, 1027, 2699, 2700, 2706, 2705
329, 1022,  162,  161, 1028, 2700, 1265, 1266, 2706
330,  180, 1023, 1029,  181, 1227, 2701, 2707, 1228
331, 1023, 1024, 1030, 1029, 2701, 2702, 2708, 2707
332, 1024, 1025, 1031, 1030, 2702, 2703, 2709, 2708
333, 1025, 1026, 1032, 1031, 2703, 2704, 2710, 2709
334, 1026, 1027, 1033, 1032, 2704, 2705, 2711, 2710
335, 1027, 1028, 1034, 1033, 2705, 2706, 2712, 2711
336, 1028,  161,  160, 1034, 2706, 1266, 1267, 2712
337,  181, 1029, 1035,  182, 1228, 2707, 2713, 1229
338, 1029, 1030, 1036, 1035, 2707, 2708, 2714, 2713
339, 1030, 1031, 1037, 1036, 2708, 2709, 2715, 2714
340, 1031, 1032, 1038, 1037, 2709, 2710, 2716, 2715
341, 1032, 1033, 1039, 1038, 2710, 2711, 2717, 2716
342, 1033, 1034, 1040, 1039, 2711, 2712, 2718, 2717
343, 1034,  160,  159, 1040, 2712, 1267, 1268, 2718
344,  182, 1035, 1041,  183, 1229, 2713, 2719, 1230
345, 1035, 1036, 1042, 1041, 2713, 2714, 2720, 2719
346, 1036, 1037, 1043, 1042, 2714, 2715, 2721, 2720
347, 1037, 1038, 1044, 1043, 2715, 2716, 2722, 2721
348, 1038, 1039, 1045, 1044, 2716, 2717, 2723, 2722
349, 1039, 1040, 1046, 1045, 2717, 2718, 2724, 2723
350, 1040,  159,  158, 1046, 2718, 1268, 1269, 2724
351,  183, 1041, 1047,  184, 1230, 2719, 2725, 1231
352, 1041, 1042, 1048, 1047, 2719, 2720, 2726, 2725
353, 1042, 1043, 1049, 1048, 2720, 2721, 2727, 2726
354, 1043, 1044, 1050, 1049, 2721, 2722, 2728, 2727
355, 1044, 1045, 1051, 1050, 2722, 2723, 2729, 2728
356, 1045, 1046, 1052, 1051, 2723, 2724, 2730, 2729
357, 1046,  158,  157, 1052, 2724, 1269, 1270, 2730
358,  184, 1047, 1053,  185, 1231, 2725, 2731, 1232
359, 1047, 1048, 1054, 1053, 2725, 2726, 2732, 2731
360, 1048, 1049, 1055, 1054, 2726, 2727, 2733, 2732
361, 1049, 1050, 1056, 1055, 2727, 2728, 2734, 2733
362, 1050, 1051, 1057, 1056, 2728, 2729, 2735, 2734
363, 1051, 1052, 1058, 1057, 2729, 2730, 2736, 2735
364, 1052,  157,  156, 1058, 2730, 1270, 1271, 2736
365,  185, 1053, 1059,  186, 1232, 2731, 2737, 1233
366, 1053, 1054, 1060, 1059, 2731, 2732, 2738, 2737
367, 1054, 1055, 1061, 1060, 2732, 2733, 2739, 2738
368, 1055, 1056, 1062, 1061, 2733, 2734, 2740, 2739
369, 1056, 1057, 1063, 1062, 2734, 2735, 2741, 2740
370, 1057, 1058, 1064, 1063, 2735, 2736, 2742, 2741
371, 1058,  156,  155, 1064, 2736, 1271, 1272, 2742
372,  186, 1059, 1065,  187, 1233, 2737, 2743, 1234
373, 1059, 1060, 1066, 1065, 2737, 2738, 2744, 2743
374, 1060, 1061, 1067, 1066, 2738, 2739, 2745, 2744
375, 1061, 1062, 1068, 1067, 2739, 2740, 2746, 2745
376, 1062, 1063, 1069, 1068, 2740, 2741, 2747, 2746
377, 1063, 1064, 1070, 1069, 2741, 2742, 2748, 2747
378, 1064,  155,  154, 1070, 2742, 1272, 1273, 2748
379,  187, 1065, 1071,  188, 1234, 2743, 2749, 1235
380, 1065, 1066, 1072, 1071, 2743, 2744, 2750, 2749
381, 1066, 1067, 1073, 1072, 2744, 2745, 2751, 2750
382, 1067, 1068, 1074, 1073, 2745, 2746, 2752, 2751
383, 1068, 1069, 1075, 1074, 2746, 2747, 2753, 2752
384, 1069, 1070, 1076, 1075, 2747, 2748, 2754, 2753
385, 1070,  154,  153, 1076, 2748, 1273, 1274, 2754
386,  188, 1071, 1077,  189, 1235, 2749, 2755, 1236
387, 1071, 1072, 1078, 1077, 2749, 2750, 2756, 2755
388, 1072, 1073, 1079, 1078, 2750, 2751, 2757, 2756
389, 1073, 1074, 1080, 1079, 2751, 2752, 2758, 2757
390, 1074, 1075, 1081, 1080, 2752, 2753, 2759, 2758
391, 1075, 1076, 1082, 1081, 2753, 2754, 2760, 2759
392, 1076,  153,  152, 1082, 2754, 1274, 1275, 2760
393,  189, 1077, 1083,  190, 1236, 2755, 2761, 1237
394, 1077, 1078, 1084, 1083, 2755, 2756, 2762, 2761
395, 1078, 1079, 1085, 1084, 2756, 2757, 2763, 2762
396, 1079, 1080, 1086, 1085, 2757, 2758, 2764, 2763
397, 1080, 1081, 1087, 1086, 2758, 2759, 2765, 2764
398, 1081, 1082, 1088, 1087, 2759, 2760, 2766, 2765
399, 1082,  152,  151, 1088, 2760, 1275, 1276, 2766
400,  190, 1083, 1089,  191, 1237, 2761, 2767, 1238
401, 1083, 1084, 1090, 1089, 2761, 2762, 2768, 2767
402, 1084, 1085, 1091, 1090, 2762, 2763, 2769, 2768
403, 1085, 1086, 1092, 1091, 2763, 2764, 2770, 2769
404, 1086, 1087, 1093, 1092, 2764, 2765, 2771, 2770
405, 1087, 1088, 1094, 1093, 2765, 2766, 2772, 2771
406, 1088,  151,  150, 1094, 2766, 1276, 1277, 2772
407,  191, 1089, 1095,  192, 1238, 2767, 2773, 1239
408, 1089, 1090, 1096, 1095, 2767, 2768, 2774, 2773
409, 1090, 1091, 1097, 1096, 2768, 2769, 2775, 2774
410, 1091, 1092, 1098, 1097, 2769, 2770, 2776, 2775
411, 1092, 1093, 1099, 1098, 2770, 2771, 2777, 2776
412, 1093, 1094, 1100, 1099, 2771, 2772, 2778, 2777
413, 1094,  150,  149, 1100, 2772, 1277, 1278, 2778
414,  192, 1095, 1101,  193, 1239, 2773, 2779, 1240
415, 1095, 1096, 1102, 1101, 2773, 2774, 2780, 2779
416, 1096, 1097, 1103, 1102, 2774, 2775, 2781, 2780
417, 1097, 1098, 1104, 1103, 2775, 2776, 2782, 2781
418, 1098, 1099, 1105, 1104, 2776, 2777, 2783, 2782
419, 1099, 1100, 1106, 1105, 2777, 2778, 2784, 2783
420, 1100,  149,  148, 1106, 2778, 1278, 1279, 2784
421,  193, 1101, 1107,  194, 1240, 2779, 2785, 1241
422, 1101, 1102, 1108, 1107, 2779, 2780, 2786, 2785
423, 1102, 1103, 1109, 1108, 2780, 2781, 2787, 2786
424, 1103, 1104, 1110, 1109, 2781, 2782, 2788, 2787
425, 1104, 1105, 1111, 1110, 2782, 2783, 2789, 2788
426, 1105, 1106, 1112, 1111, 2783, 2784, 2790, 2789
427, 1106,  148,  147, 1112, 2784, 1279, 1280, 2790
428,  194, 1107, 1113,  195, 1241, 2785, 2791, 1242
429, 1107, 1108, 1114, 1113, 2785, 2786, 2792, 2791
430, 1108, 1109, 1115, 1114, 2786, 2787, 2793, 2792
431, 1109, 1110, 1116, 1115, 2787, 2788, 2794, 2793
432, 1110, 1111, 1117, 1116, 2788, 2789, 2795, 2794
433, 1111, 1112, 1118, 1117, 2789, 2790, 2796, 2795
434, 1112,  147,  146, 1118, 2790, 1280, 1281, 2796
435,  195, 1113, 1119,  196, 1242, 2791, 2797, 1243
436, 1113, 1114, 1120, 1119, 2791, 2792, 2798, 2797
437, 1114, 1115, 1121, 1120, 2792, 2793, 2799, 2798
438, 1115, 1116, 1122, 1121, 2793, 2794, 2800, 2799
439, 1116, 1117, 1123, 1122, 2794, 2795, 2801, 2800
440, 1117, 1118, 1124, 1123, 2795, 2796, 2802, 2801
441, 1118,  146,  145, 1124, 2796, 1281, 1282, 2802
442,  196, 1119, 1125,  197, 1243, 2797, 2803, 1244
443, 1119, 1120, 1126, 1125, 2797, 2798, 2804, 2803
444, 1120, 1121, 1127, 1126, 2798, 2799, 2805, 2804
445, 1121, 1122, 1128, 1127, 2799, 2800, 2806, 2805
446, 1122, 1123, 1129, 1128, 2800, 2801, 2807, 2806
447, 1123, 1124, 1130, 1129, 2801, 2802, 2808, 2807
448, 1124,  145,  144, 1130, 2802, 1282, 1283, 2808
449,  197, 1125, 1131,  198, 1244, 2803, 2809, 1245
450, 1125, 1126, 1132, 1131, 2803, 2804, 2810, 2809
451, 1126, 1127, 1133, 1132, 2804, 2805, 2811, 2810
452, 1127, 1128, 1134, 1133, 2805, 2806, 2812, 2811
453, 1128, 1129, 1135, 1134, 2806, 2807, 2813, 2812
454, 1129, 1130, 1136, 1135, 2807, 2808, 2814, 2813
455, 1130,  144,  143, 1136, 2808, 1283, 1284, 2814
456,  198, 1131, 1137,  199, 1245, 2809, 2815, 1246
457, 1131, 1132, 1138, 1137, 2809, 2810, 2816, 2815
458, 1132, 1133, 1139, 1138, 2810, 2811, 2817, 2816
459, 1133, 1134, 1140, 1139, 2811, 2812, 2818, 2817
460, 1134, 1135, 1141, 1140, 2812, 2813, 2819, 2818
461, 1135, 1136, 1142, 1141, 2813, 2814, 2820, 2819
462, 1136,  143,  142, 1142, 2814, 1284, 1285, 2820
463,  199, 1137, 1143,  200, 1246, 2815, 2821, 1247
464, 1137, 1138, 1144, 1143, 2815, 2816, 2822, 2821
465, 1138, 1139, 1145, 1144, 2816, 2817, 2823, 2822
466, 1139, 1140, 1146, 1145, 2817, 2818, 2824, 2823
467, 1140, 1141, 1147, 1146, 2818, 2819, 2825, 2824
468, 1141, 1142, 1148, 1147, 2819, 2820, 2826, 2825
469, 1142,  142,  141, 1148, 2820, 1285, 1286, 2826
470,  200, 1143, 1149,  201, 1247, 2821, 2827, 1248
471, 1143, 1144, 1150, 1149, 2821, 2822, 2828, 2827
472, 1144, 1145, 1151, 1150, 2822, 2823, 2829, 2828
473, 1145, 1146, 1152, 1151, 2823, 2824, 2830, 2829
474, 1146, 1147, 1153, 1152, 2824, 2825, 2831, 2830
475, 1147, 1148, 1154, 1153, 2825, 2826, 2832, 2831
476, 1148,  141,  140, 1154, 2826, 1286, 1287, 2832
477,  201, 1149, 1155,  202, 1248, 2827, 2833, 1249
478, 1149, 1150, 1156, 1155, 2827, 2828, 2834, 2833
479, 1150, 1151, 1157, 1156, 2828, 2829, 2835, 2834
480, 1151, 1152, 1158, 1157, 2829, 2830, 2836, 2835
481, 1152, 1153, 1159, 1158, 2830, 2831, 2837, 2836
482, 1153, 1154, 1160, 1159, 2831, 2832, 2838, 2837
483, 1154,  140,  139, 1160, 2832, 1287, 1288, 2838
484,  202, 1155, 1161,  203, 1249, 2833, 2839, 1250
485, 1155, 1156, 1162, 1161, 2833, 2834, 2840, 2839
486, 1156, 1157, 1163, 1162, 2834, 2835, 2841, 2840
487, 1157, 1158, 1164, 1163, 2835, 2836, 2842, 2841
488, 1158, 1159, 1165, 1164, 2836, 2837, 2843, 2842
489, 1159, 1160, 1166, 1165, 2837, 2838, 2844, 2843
490, 1160,  139,  138, 1166, 2838, 1288, 1289, 2844
491,  203, 1161, 1167,  204, 1250, 2839, 2845, 1251
492, 1161, 1162, 1168, 1167, 2839, 2840, 2846, 2845
493, 1162, 1163, 1169, 1168, 2840, 2841, 2847, 2846
494, 1163, 1164, 1170, 1169, 2841, 2842, 2848, 2847
495, 1164, 1165, 1171, 1170, 2842, 2843, 2849, 2848
496, 1165, 1166, 1172, 1171, 2843, 2844, 2850, 2849
497, 1166,  138,  137, 1172, 2844, 1289, 1290, 2850
498,  204, 1167, 1173,  205, 1251, 2845, 2851, 1252
499, 1167, 1168, 1174, 1173, 2845, 2846, 2852, 2851
500, 1168, 1169, 1175, 1174, 2846, 2847, 2853, 2852
501, 1169, 1170, 1176, 1175, 2847, 2848, 2854, 2853
502, 1170, 1171, 1177, 1176, 2848, 2849, 2855, 2854
503, 1171, 1172, 1178, 1177, 2849, 2850, 2856, 2855
504, 1172,  137,  136, 1178, 2850, 1290, 1291, 2856
505,  205, 1173, 1179,  206, 1252, 2851, 2857, 1253
506, 1173, 1174, 1180, 1179, 2851, 2852, 2858, 2857
507, 1174, 1175, 1181, 1180, 2852, 2853, 2859, 2858
508, 1175, 1176, 1182, 1181, 2853, 2854, 2860, 2859
509, 1176, 1177, 1183, 1182, 2854, 2855, 2861, 2860
510, 1177, 1178, 1184, 1183, 2855, 2856, 2862, 2861
511, 1178,  136,  135, 1184, 2856, 1291, 1292, 2862
512,  206, 1179, 1185,  207, 1253, 2857, 2863, 1254
513, 1179, 1180, 1186, 1185, 2857, 2858, 2864, 2863
514, 1180, 1181, 1187, 1186, 2858, 2859, 2865, 2864
515, 1181, 1182, 1188, 1187, 2859, 2860, 2866, 2865
516, 1182, 1183, 1189, 1188, 2860, 2861, 2867, 2866
517, 1183, 1184, 1190, 1189, 2861, 2862, 2868, 2867
518, 1184,  135,  134, 1190, 2862, 1292, 1293, 2868
519,  207, 1185, 1191,  208, 1254, 2863, 2869, 1255
520, 1185, 1186, 1192, 1191, 2863, 2864, 2870, 2869
521, 1186, 1187, 1193, 1192, 2864, 2865, 2871, 2870
522, 1187, 1188, 1194, 1193, 2865, 2866, 2872, 2871
523, 1188, 1189, 1195, 1194, 2866, 2867, 2873, 2872
524, 1189, 1190, 1196, 1195, 2867, 2868, 2874, 2873
525, 1190,  134,  133, 1196, 2868, 1293, 1294, 2874
526,  208, 1191, 1197,  209, 1255, 2869, 2875, 1256
527, 1191, 1192, 1198, 1197, 2869, 2870, 2876, 2875
528, 1192, 1193, 1199, 1198, 2870, 2871, 2877, 2876
529, 1193, 1194, 1200, 1199, 2871, 2872, 2878, 2877
530, 1194, 1195, 1201, 1200, 2872, 2873, 2879, 2878
531, 1195, 1196, 1202, 1201, 2873, 2874, 2880, 2879
532, 1196,  133,  132, 1202, 2874, 1294, 1295, 2880
533,  209, 1197, 1203,  210, 1256, 2875, 2881, 1257
534, 1197, 1198, 1204, 1203, 2875, 2876, 2882, 2881
535, 1198, 1199, 1205, 1204, 2876, 2877, 2883, 2882
536, 1199, 1200, 1206, 1205, 2877, 2878, 2884, 2883
537, 1200, 1201, 1207, 1206, 2878, 2879, 2885, 2884
538, 1201, 1202, 1208, 1207, 2879, 2880, 2886, 2885
539, 1202,  132,  131, 1208, 2880, 1295, 1296, 2886
540,  210, 1203, 1209,  211, 1257, 2881, 2887, 1258
541, 1203, 1204, 1210, 1209, 2881, 2882, 2888, 2887
542, 1204, 1205, 1211, 1210, 2882, 2883, 2889, 2888
543, 1205, 1206, 1212, 1211, 2883, 2884, 2890, 2889
544, 1206, 1207, 1213, 1212, 2884, 2885, 2891, 2890
545, 1207, 1208, 1214, 1213, 2885, 2886, 2892, 2891
546, 1208,  131,  130, 1214, 2886, 1296, 1297, 2892
547,  211, 1209, 1215,  212, 1258, 2887, 2893, 1259
548, 1209, 1210, 1216, 1215, 2887, 2888, 2894, 2893
549, 1210, 1211, 1217, 1216, 2888, 2889, 2895, 2894
550, 1211, 1212, 1218, 1217, 2889, 2890, 2896, 2895
551, 1212, 1213, 1219, 1218, 2890, 2891, 2897, 2896
552, 1213, 1214, 1220, 1219, 2891, 2892, 2898, 2897
553, 1214,  130,  129, 1220, 2892, 1297, 1298, 2898
554,  212, 1215,  168,    7, 1259, 2893, 1305,  213
555, 1215, 1216,  169,  168, 2893, 2894, 1306, 1305
556, 1216, 1217,  170,  169, 2894, 2895, 1307, 1306
557, 1217, 1218,  171,  170, 2895, 2896, 1308, 1307
558, 1218, 1219,  172,  171, 2896, 2897, 1309, 1308
559, 1219, 1220,  173,  172, 2897, 2898, 1310, 1309
560, 1220,  129,    6,  173, 2898, 1298,  215, 1310
561,  215, 1298, 2899, 1389,    3,   77, 1311,  257
562, 1298, 1297, 2900, 2899,   77,   76, 1312, 1311
563, 1297, 1296, 2901, 2900,   76,   75, 1313, 1312
564, 1296, 1295, 2902, 2901,   75,   74, 1314, 1313
565, 1295, 1294, 2903, 2902,   74,   73, 1315, 1314
566, 1294, 1293, 2904, 2903,   73,   72, 1316, 1315
567, 1293, 1292, 2905, 2904,   72,   71, 1317, 1316
568, 1292, 1291, 2906, 2905,   71,   70, 1318, 1317
569, 1291, 1290, 2907, 2906,   70,   69, 1319, 1318
570, 1290, 1289, 2908, 2907,   69,   68, 1320, 1319
571, 1289, 1288, 2909, 2908,   68,   67, 1321, 1320
572, 1288, 1287, 2910, 2909,   67,   66, 1322, 1321
573, 1287, 1286, 2911, 2910,   66,   65, 1323, 1322
574, 1286, 1285, 2912, 2911,   65,   64, 1324, 1323
575, 1285, 1284, 2913, 2912,   64,   63, 1325, 1324
576, 1284, 1283, 2914, 2913,   63,   62, 1326, 1325
577, 1283, 1282, 2915, 2914,   62,   61, 1327, 1326
578, 1282, 1281, 2916, 2915,   61,   60, 1328, 1327
579, 1281, 1280, 2917, 2916,   60,   59, 1329, 1328
580, 1280, 1279, 2918, 2917,   59,   58, 1330, 1329
581, 1279, 1278, 2919, 2918,   58,   57, 1331, 1330
582, 1278, 1277, 2920, 2919,   57,   56, 1332, 1331
583, 1277, 1276, 2921, 2920,   56,   55, 1333, 1332
584, 1276, 1275, 2922, 2921,   55,   54, 1334, 1333
585, 1275, 1274, 2923, 2922,   54,   53, 1335, 1334
586, 1274, 1273, 2924, 2923,   53,   52, 1336, 1335
587, 1273, 1272, 2925, 2924,   52,   51, 1337, 1336
588, 1272, 1271, 2926, 2925,   51,   50, 1338, 1337
589, 1271, 1270, 2927, 2926,   50,   49, 1339, 1338
590, 1270, 1269, 2928, 2927,   49,   48, 1340, 1339
591, 1269, 1268, 2929, 2928,   48,   47, 1341, 1340
592, 1268, 1267, 2930, 2929,   47,   46, 1342, 1341
593, 1267, 1266, 2931, 2930,   46,   45, 1343, 1342
594, 1266, 1265, 2932, 2931,   45,   44, 1344, 1343
595, 1265, 1264, 2933, 2932,   44,   43, 1345, 1344
596, 1264, 1263, 2934, 2933,   43,   42, 1346, 1345
597, 1263, 1262, 2935, 2934,   42,   41, 1347, 1346
598, 1262, 1261, 2936, 2935,   41,   40, 1348, 1347
599, 1261, 1260, 2937, 2936,   40,   39, 1349, 1348
600, 1260,  216, 1390, 2937,   39,    2,  217, 1349
601, 1389, 2899, 1391,  299,  257, 1311,  256,   10
602, 2899, 2900, 1392, 1391, 1311, 1312,  255,  256
603, 2900, 2901, 1393, 1392, 1312, 1313,  254,  255
604, 2901, 2902, 1394, 1393, 1313, 1314,  253,  254
605, 2902, 2903, 1395, 1394, 1314, 1315,  252,  253
606, 2903, 2904, 1396, 1395, 1315, 1316,  251,  252
607, 2904, 2905, 1397, 1396, 1316, 1317,  250,  251
608, 2905, 2906, 1398, 1397, 1317, 1318,  249,  250
609, 2906, 2907, 1399, 1398, 1318, 1319,  248,  249
610, 2907, 2908, 1400, 1399, 1319, 1320,  247,  248
611, 2908, 2909, 1401, 1400, 1320, 1321,  246,  247
612, 2909, 2910, 1402, 1401, 1321, 1322,  245,  246
613, 2910, 2911, 1403, 1402, 1322, 1323,  244,  245
614, 2911, 2912, 1404, 1403, 1323, 1324,  243,  244
615, 2912, 2913, 1405, 1404, 1324, 1325,  242,  243
616, 2913, 2914, 1406, 1405, 1325, 1326,  241,  242
617, 2914, 2915, 1407, 1406, 1326, 1327,  240,  241
618, 2915, 2916, 1408, 1407, 1327, 1328,  239,  240
619, 2916, 2917, 1409, 1408, 1328, 1329,  238,  239
620, 2917, 2918, 1410, 1409, 1329, 1330,  237,  238
621, 2918, 2919, 1411, 1410, 1330, 1331,  236,  237
622, 2919, 2920, 1412, 1411, 1331, 1332,  235,  236
623, 2920, 2921, 1413, 1412, 1332, 1333,  234,  235
624, 2921, 2922, 1414, 1413, 1333, 1334,  233,  234
625, 2922, 2923, 1415, 1414, 1334, 1335,  232,  233
626, 2923, 2924, 1416, 1415, 1335, 1336,  231,  232
627, 2924, 2925, 1417, 1416, 1336, 1337,  230,  231
628, 2925, 2926, 1418, 1417, 1337, 1338,  229,  230
629, 2926, 2927, 1419, 1418, 1338, 1339,  228,  229
630, 2927, 2928, 1420, 1419, 1339, 1340,  227,  228
631, 2928, 2929, 1421, 1420, 1340, 1341,  226,  227
632, 2929, 2930, 1422, 1421, 1341, 1342,  225,  226
633, 2930, 2931, 1423, 1422, 1342, 1343,  224,  225
634, 2931, 2932, 1424, 1423, 1343, 1344,  223,  224
635, 2932, 2933, 1425, 1424, 1344, 1345,  222,  223
636, 2933, 2934, 1426, 1425, 1345, 1346,  221,  222
637, 2934, 2935, 1427, 1426, 1346, 1347,  220,  221
638, 2935, 2936, 1428, 1427, 1347, 1348,  219,  220
639, 2936, 2937, 1429, 1428, 1348, 1349,  218,  219
640, 2937, 1390,  300, 1429, 1349,  217,    9,  218
641,    6,  129, 1350,  298,  215, 1298, 2899, 1389
642,  129,  130, 1351, 1350, 1298, 1297, 2900, 2899
643,  130,  131, 1352, 1351, 1297, 1296, 2901, 2900
644,  131,  132, 1353, 1352, 1296, 1295, 2902, 2901
645,  132,  133, 1354, 1353, 1295, 1294, 2903, 2902
646,  133,  134, 1355, 1354, 1294, 1293, 2904, 2903
647,  134,  135, 1356, 1355, 1293, 1292, 2905, 2904
648,  135,  136, 1357, 1356, 1292, 1291, 2906, 2905
649,  136,  137, 1358, 1357, 1291, 1290, 2907, 2906
650,  137,  138, 1359, 1358, 1290, 1289, 2908, 2907
651,  138,  139, 1360, 1359, 1289, 1288, 2909, 2908
652,  139,  140, 1361, 1360, 1288, 1287, 2910, 2909
653,  140,  141, 1362, 1361, 1287, 1286, 2911, 2910
654,  141,  142, 1363, 1362, 1286, 1285, 2912, 2911
655,  142,  143, 1364, 1363, 1285, 1284, 2913, 2912
656,  143,  144, 1365, 1364, 1284, 1283, 2914, 2913
657,  144,  145, 1366, 1365, 1283, 1282, 2915, 2914
658,  145,  146, 1367, 1366, 1282, 1281, 2916, 2915
659,  146,  147, 1368, 1367, 1281, 1280, 2917, 2916
660,  147,  148, 1369, 1368, 1280, 1279, 2918, 2917
661,  148,  149, 1370, 1369, 1279, 1278, 2919, 2918
662,  149,  150, 1371, 1370, 1278, 1277, 2920, 2919
663,  150,  151, 1372, 1371, 1277, 1276, 2921, 2920
664,  151,  152, 1373, 1372, 1276, 1275, 2922, 2921
665,  152,  153, 1374, 1373, 1275, 1274, 2923, 2922
666,  153,  154, 1375, 1374, 1274, 1273, 2924, 2923
667,  154,  155, 1376, 1375, 1273, 1272, 2925, 2924
668,  155,  156, 1377, 1376, 1272, 1271, 2926, 2925
669,  156,  157, 1378, 1377, 1271, 1270, 2927, 2926
670,  157,  158, 1379, 1378, 1270, 1269, 2928, 2927
671,  158,  159, 1380, 1379, 1269, 1268, 2929, 2928
672,  159,  160, 1381, 1380, 1268, 1267, 2930, 2929
673,  160,  161, 1382, 1381, 1267, 1266, 2931, 2930
674,  161,  162, 1383, 1382, 1266, 1265, 2932, 2931
675,  162,  163, 1384, 1383, 1265, 1264, 2933, 2932
676,  163,  164, 1385, 1384, 1264, 1263, 2934, 2933
677,  164,  165, 1386, 1385, 1263, 1262, 2935, 2934
678,  165,  166, 1387, 1386, 1262, 1261, 2936, 2935
679,  166,  167, 1388, 1387, 1261, 1260, 2937, 2936
680,  167,    5,  258, 1388, 1260,  216, 1390, 2937
681,  298, 1350,  259,   12, 1389, 2899, 1391,  299
682, 1350, 1351,  260,  259, 2899, 2900, 1392, 1391
683, 1351, 1352,  261,  260, 2900, 2901, 1393, 1392
684, 1352, 1353,  262,  261, 2901, 2902, 1394, 1393
685, 1353, 1354,  263,  262, 2902, 2903, 1395, 1394
686, 1354, 1355,  264,  263, 2903, 2904, 1396, 1395
687, 1355, 1356,  265,  264, 2904, 2905, 1397, 1396
688, 1356, 1357,  266,  265, 2905, 2906, 1398, 1397
689, 1357, 1358,  267,  266, 2906, 2907, 1399, 1398
690, 1358, 1359,  268,  267, 2907, 2908, 1400, 1399
691, 1359, 1360,  269,  268, 2908, 2909, 1401, 1400
692, 1360, 1361,  270,  269, 2909, 2910, 1402, 1401
693, 1361, 1362,  271,  270, 2910, 2911, 1403, 1402
694, 1362, 1363,  272,  271, 2911, 2912, 1404, 1403
695, 1363, 1364,  273,  272, 2912, 2913, 1405, 1404
696, 1364, 1365,  274,  273, 2913, 2914, 1406, 1405
697, 1365, 1366,  275,  274, 2914, 2915, 1407, 1406
698, 1366, 1367,  276,  275, 2915, 2916, 1408, 1407
699, 1367, 1368,  277,  276, 2916, 2917, 1409, 1408
700, 1368, 1369,  278,  277, 2917, 2918, 1410, 1409
701, 1369, 1370,  279,  278, 2918, 2919, 1411, 1410
702, 1370, 1371,  280,  279, 2919, 2920, 1412, 1411
703, 1371, 1372,  281,  280, 2920, 2921, 1413, 1412
704, 1372, 1373,  282,  281, 2921, 2922, 1414, 1413
705, 1373, 1374,  283,  282, 2922, 2923, 1415, 1414
706, 1374, 1375,  284,  283, 2923, 2924, 1416, 1415
707, 1375, 1376,  285,  284, 2924, 2925, 1417, 1416
708, 1376, 1377,  286,  285, 2925, 2926, 1418, 1417
709, 1377, 1378,  287,  286, 2926, 2927, 1419, 1418
710, 1378, 1379,  288,  287, 2927, 2928, 1420, 1419
711, 1379, 1380,  289,  288, 2928, 2929, 1421, 1420
712, 1380, 1381,  290,  289, 2929, 2930, 1422, 1421
713, 1381, 1382,  291,  290, 2930, 2931, 1423, 1422
714, 1382, 1383,  292,  291, 2931, 2932, 1424, 1423
715, 1383, 1384,  293,  292, 2932, 2933, 1425, 1424
716, 1384, 1385,  294,  293, 2933, 2934, 1426, 1425
717, 1385, 1386,  295,  294, 2934, 2935, 1427, 1426
718, 1386, 1387,  296,  295, 2935, 2936, 1428, 1427
719, 1387, 1388,  297,  296, 2936, 2937, 1429, 1428
720, 1388,  258,   11,  297, 2937, 1390,  300, 1429
 721,  217, 1703, 2938, 1349,    2,  301, 1430,   39
 722, 1703, 1704, 2939, 2938,  301,  302, 1431, 1430
 723, 1704, 1705, 2940, 2939,  302,  303, 1432, 1431
 724, 1705,  392, 1664, 2940,  303,   13,  304, 1432
 725, 1349, 2938, 2941, 1348,   39, 1430, 1433,   40
 726, 2938, 2939, 2942, 2941, 1430, 1431, 1434, 1433
 727, 2939, 2940, 2943, 2942, 1431, 1432, 1435, 1434
 728, 2940, 1664, 1665, 2943, 1432,  304,  305, 1435
 729, 1348, 2941, 2944, 1347,   40, 1433, 1436,   41
 730, 2941, 2942, 2945, 2944, 1433, 1434, 1437, 1436
 731, 2942, 2943, 2946, 2945, 1434, 1435, 1438, 1437
 732, 2943, 1665, 1666, 2946, 1435,  305,  306, 1438
 733, 1347, 2944, 2947, 1346,   41, 1436, 1439,   42
 734, 2944, 2945, 2948, 2947, 1436, 1437, 1440, 1439
 735, 2945, 2946, 2949, 2948, 1437, 1438, 1441, 1440
 736, 2946, 1666, 1667, 2949, 1438,  306,  307, 1441
 737, 1346, 2947, 2950, 1345,   42, 1439, 1442,   43
 738, 2947, 2948, 2951, 2950, 1439, 1440, 1443, 1442
 739, 2948, 2949, 2952, 2951, 1440, 1441, 1444, 1443
 740, 2949, 1667, 1668, 2952, 1441,  307,  308, 1444
 741, 1345, 2950, 2953, 1344,   43, 1442, 1445,   44
 742, 2950, 2951, 2954, 2953, 1442, 1443, 1446, 1445
 743, 2951, 2952, 2955, 2954, 1443, 1444, 1447, 1446
 744, 2952, 1668, 1669, 2955, 1444,  308,  309, 1447
 745, 1344, 2953, 2956, 1343,   44, 1445, 1448,   45
 746, 2953, 2954, 2957, 2956, 1445, 1446, 1449, 1448
 747, 2954, 2955, 2958, 2957, 1446, 1447, 1450, 1449
 748, 2955, 1669, 1670, 2958, 1447,  309,  310, 1450
 749, 1343, 2956, 2959, 1342,   45, 1448, 1451,   46
 750, 2956, 2957, 2960, 2959, 1448, 1449, 1452, 1451
 751, 2957, 2958, 2961, 2960, 1449, 1450, 1453, 1452
 752, 2958, 1670, 1671, 2961, 1450,  310,  311, 1453
 753, 1342, 2959, 2962, 1341,   46, 1451, 1454,   47
 754, 2959, 2960, 2963, 2962, 1451, 1452, 1455, 1454
 755, 2960, 2961, 2964, 2963, 1452, 1453, 1456, 1455
 756, 2961, 1671, 1672, 2964, 1453,  311,  312, 1456
 757, 1341, 2962, 2965, 1340,   47, 1454, 1457,   48
 758, 2962, 2963, 2966, 2965, 1454, 1455, 1458, 1457
 759, 2963, 2964, 2967, 2966, 1455, 1456, 1459, 1458
 760, 2964, 1672, 1673, 2967, 1456,  312,  313, 1459
 761, 1340, 2965, 2968, 1339,   48, 1457, 1460,   49
 762, 2965, 2966, 2969, 2968, 1457, 1458, 1461, 1460
 763, 2966, 2967, 2970, 2969, 1458, 1459, 1462, 1461
 764, 2967, 1673, 1674, 2970, 1459,  313,  314, 1462
 765, 1339, 2968, 2971, 1338,   49, 1460, 1463,   50
 766, 2968, 2969, 2972, 2971, 1460, 1461, 1464, 1463
 767, 2969, 2970, 2973, 2972, 1461, 1462, 1465, 1464
 768, 2970, 1674, 1675, 2973, 1462,  314,  315, 1465
 769, 1338, 2971, 2974, 1337,   50, 1463, 1466,   51
 770, 2971, 2972, 2975, 2974, 1463, 1464, 1467, 1466
 771, 2972, 2973, 2976, 2975, 1464, 1465, 1468, 1467
 772, 2973, 1675, 1676, 2976, 1465,  315,  316, 1468
 773, 1337, 2974, 2977, 1336,   51, 1466, 1469,   52
 774, 2974, 2975, 2978, 2977, 1466, 1467, 1470, 1469
 775, 2975, 2976, 2979, 2978, 1467, 1468, 1471, 1470
 776, 2976, 1676, 1677, 2979, 1468,  316,  317, 1471
 777, 1336, 2977, 2980, 1335,   52, 1469, 1472,   53
 778, 2977, 2978, 2981, 2980, 1469, 1470, 1473, 1472
 779, 2978, 2979, 2982, 2981, 1470, 1471, 1474, 1473
 780, 2979, 1677, 1678, 2982, 1471,  317,  318, 1474
 781, 1335, 2980, 2983, 1334,   53, 1472, 1475,   54
 782, 2980, 2981, 2984, 2983, 1472, 1473, 1476, 1475
 783, 2981, 2982, 2985, 2984, 1473, 1474, 1477, 1476
 784, 2982, 1678, 1679, 2985, 1474,  318,  319, 1477
 785, 1334, 2983, 2986, 1333,   54, 1475, 1478,   55
 786, 2983, 2984, 2987, 2986, 1475, 1476, 1479, 1478
 787, 2984, 2985, 2988, 2987, 1476, 1477, 1480, 1479
 788, 2985, 1679, 1680, 2988, 1477,  319,  320, 1480
 789, 1333, 2986, 2989, 1332,   55, 1478, 1481,   56
 790, 2986, 2987, 2990, 2989, 1478, 1479, 1482, 1481
 791, 2987, 2988, 2991, 2990, 1479, 1480, 1483, 1482
 792, 2988, 1680, 1681, 2991, 1480,  320,  321, 1483
 793, 1332, 2989, 2992, 1331,   56, 1481, 1484,   57
 794, 2989, 2990, 2993, 2992, 1481, 1482, 1485, 1484
 795, 2990, 2991, 2994, 2993, 1482, 1483, 1486, 1485
 796, 2991, 1681, 1682, 2994, 1483,  321,  322, 1486
 797, 1331, 2992, 2995, 1330,   57, 1484, 1487,   58
 798, 2992, 2993, 2996, 2995, 1484, 1485, 1488, 1487
 799, 2993, 2994, 2997, 2996, 1485, 1486, 1489, 1488
 800, 2994, 1682, 1683, 2997, 1486,  322,  323, 1489
 801, 1330, 2995, 2998, 1329,   58, 1487, 1490,   59
 802, 2995, 2996, 2999, 2998, 1487, 1488, 1491, 1490
 803, 2996, 2997, 3000, 2999, 1488, 1489, 1492, 1491
 804, 2997, 1683, 1684, 3000, 1489,  323,  324, 1492
 805, 1329, 2998, 3001, 1328,   59, 1490, 1493,   60
 806, 2998, 2999, 3002, 3001, 1490, 1491, 1494, 1493
 807, 2999, 3000, 3003, 3002, 1491, 1492, 1495, 1494
 808, 3000, 1684, 1685, 3003, 1492,  324,  325, 1495
 809, 1328, 3001, 3004, 1327,   60, 1493, 1496,   61
 810, 3001, 3002, 3005, 3004, 1493, 1494, 1497, 1496
 811, 3002, 3003, 3006, 3005, 1494, 1495, 1498, 1497
 812, 3003, 1685, 1686, 3006, 1495,  325,  326, 1498
 813, 1327, 3004, 3007, 1326,   61, 1496, 1499,   62
 814, 3004, 3005, 3008, 3007, 1496, 1497, 1500, 1499
 815, 3005, 3006, 3009, 3008, 1497, 1498, 1501, 1500
 816, 3006, 1686, 1687, 3009, 1498,  326,  327, 1501
 817, 1326, 3007, 3010, 1325,   62, 1499, 1502,   63
 818, 3007, 3008, 3011, 3010, 1499, 1500, 1503, 1502
 819, 3008, 3009, 3012, 3011, 1500, 1501, 1504, 1503
 820, 3009, 1687, 1688, 3012, 1501,  327,  328, 1504
 821, 1325, 3010, 3013, 1324,   63, 1502, 1505,   64
 822, 3010, 3011, 3014, 3013, 1502, 1503, 1506, 1505
 823, 3011, 3012, 3015, 3014, 1503, 1504, 1507, 1506
 824, 3012, 1688, 1689, 3015, 1504,  328,  329, 1507
 825, 1324, 3013, 3016, 1323,   64, 1505, 1508,   65
 826, 3013, 3014, 3017, 3016, 1505, 1506, 1509, 1508
 827, 3014, 3015, 3018, 3017, 1506, 1507, 1510, 1509
 828, 3015, 1689, 1690, 3018, 1507,  329,  330, 1510
 829, 1323, 3016, 3019, 1322,   65, 1508, 1511,   66
 830, 3016, 3017, 3020, 3019, 1508, 1509, 1512, 1511
 831, 3017, 3018, 3021, 3020, 1509, 1510, 1513, 1512
 832, 3018, 1690, 1691, 3021, 1510,  330,  331, 1513
 833, 1322, 3019, 3022, 1321,   66, 1511, 1514,   67
 834, 3019, 3020, 3023, 3022, 1511, 1512, 1515, 1514
 835, 3020, 3021, 3024, 3023, 1512, 1513, 1516, 1515
 836, 3021, 1691, 1692, 3024, 1513,  331,  332, 1516
 837, 1321, 3022, 3025, 1320,   67, 1514, 1517,   68
 838, 3022, 3023, 3026, 3025, 1514, 1515, 1518, 1517
 839, 3023, 3024, 3027, 3026, 1515, 1516, 1519, 1518
 840, 3024, 1692, 1693, 3027, 1516,  332,  333, 1519
 841, 1320, 3025, 3028, 1319,   68, 1517, 1520,   69
 842, 3025, 3026, 3029, 3028, 1517, 1518, 1521, 1520
 843, 3026, 3027, 3030, 3029, 1518, 1519, 1522, 1521
 844, 3027, 1693, 1694, 3030, 1519,  333,  334, 1522
 845, 1319, 3028, 3031, 1318,   69, 1520, 1523,   70
 846, 3028, 3029, 3032, 3031, 1520, 1521, 1524, 1523
 847, 3029, 3030, 3033, 3032, 1521, 1522, 1525, 1524
 848, 3030, 1694, 1695, 3033, 1522,  334,  335, 1525
 849, 1318, 3031, 3034, 1317,   70, 1523, 1526,   71
 850, 3031, 3032, 3035, 3034, 1523, 1524, 1527, 1526
 851, 3032, 3033, 3036, 3035, 1524, 1525, 1528, 1527
 852, 3033, 1695, 1696, 3036, 1525,  335,  336, 1528
 853, 1317, 3034, 3037, 1316,   71, 1526, 1529,   72
 854, 3034, 3035, 3038, 3037, 1526, 1527, 1530, 1529
 855, 3035, 3036, 3039, 3038, 1527, 1528, 1531, 1530
 856, 3036, 1696, 1697, 3039, 1528,  336,  337, 1531
 857, 1316, 3037, 3040, 1315,   72, 1529, 1532,   73
 858, 3037, 3038, 3041, 3040, 1529, 1530, 1533, 1532
 859, 3038, 3039, 3042, 3041, 1530, 1531, 1534, 1533
 860, 3039, 1697, 1698, 3042, 1531,  337,  338, 1534
 861, 1315, 3040, 3043, 1314,   73, 1532, 1535,   74
 862, 3040, 3041, 3044, 3043, 1532, 1533, 1536, 1535
 863, 3041, 3042, 3045, 3044, 1533, 1534, 1537, 1536
 864, 3042, 1698, 1699, 3045, 1534,  338,  339, 1537
 865, 1314, 3043, 3046, 1313,   74, 1535, 1538,   75
 866, 3043, 3044, 3047, 3046, 1535, 1536, 1539, 1538
 867, 3044, 3045, 3048, 3047, 1536, 1537, 1540, 1539
 868, 3045, 1699, 1700, 3048, 1537,  339,  340, 1540
 869, 1313, 3046, 3049, 1312,   75, 1538, 1541,   76
 870, 3046, 3047, 3050, 3049, 1538, 1539, 1542, 1541
 871, 3047, 3048, 3051, 3050, 1539, 1540, 1543, 1542
 872, 3048, 1700, 1701, 3051, 1540,  340,  341, 1543
 873, 1312, 3049, 3052, 1311,   76, 1541, 1544,   77
 874, 3049, 3050, 3053, 3052, 1541, 1542, 1545, 1544
 875, 3050, 3051, 3054, 3053, 1542, 1543, 1546, 1545
 876, 3051, 1701, 1702, 3054, 1543,  341,  342, 1546
 877, 1311, 3052, 1706,  257,   77, 1544,  345,    3
 878, 3052, 3053, 1707, 1706, 1544, 1545,  344,  345
 879, 3053, 3054, 1708, 1707, 1545, 1546,  343,  344
 880, 3054, 1702,  391, 1708, 1546,  342,   14,  343
 881,    9,  348, 1547,  218,  217, 1703, 2938, 1349
 882,  348,  347, 1548, 1547, 1703, 1704, 2939, 2938
 883,  347,  346, 1549, 1548, 1704, 1705, 2940, 2939
 884,  346,   15,  387, 1549, 1705,  392, 1664, 2940
 885,  218, 1547, 1550,  219, 1349, 2938, 2941, 1348
 886, 1547, 1548, 1551, 1550, 2938, 2939, 2942, 2941
 887, 1548, 1549, 1552, 1551, 2939, 2940, 2943, 2942
 888, 1549,  387,  386, 1552, 2940, 1664, 1665, 2943
 889,  219, 1550, 1553,  220, 1348, 2941, 2944, 1347
 890, 1550, 1551, 1554, 1553, 2941, 2942, 2945, 2944
 891, 1551, 1552, 1555, 1554, 2942, 2943, 2946, 2945
 892, 1552,  386,  385, 1555, 2943, 1665, 1666, 2946
 893,  220, 1553, 1556,  221, 1347, 2944, 2947, 1346
 894, 1553, 1554, 1557, 1556, 2944, 2945, 2948, 2947
 895, 1554, 1555, 1558, 1557, 2945, 2946, 2949, 2948
 896, 1555,  385,  384, 1558, 2946, 1666, 1667, 2949
 897,  221, 1556, 1559,  222, 1346, 2947, 2950, 1345
 898, 1556, 1557, 1560, 1559, 2947, 2948, 2951, 2950
 899, 1557, 1558, 1561, 1560, 2948, 2949, 2952, 2951
 900, 1558,  384,  383, 1561, 2949, 1667, 1668, 2952
 901,  222, 1559, 1562,  223, 1345, 2950, 2953, 1344
 902, 1559, 1560, 1563, 1562, 2950, 2951, 2954, 2953
 903, 1560, 1561, 1564, 1563, 2951, 2952, 2955, 2954
 904, 1561,  383,  382, 1564, 2952, 1668, 1669, 2955
 905,  223, 1562, 1565,  224, 1344, 2953, 2956, 1343
 906, 1562, 1563, 1566, 1565, 2953, 2954, 2957, 2956
 907, 1563, 1564, 1567, 1566, 2954, 2955, 2958, 2957
 908, 1564,  382,  381, 1567, 2955, 1669, 1670, 2958
 909,  224, 1565, 1568,  225, 1343, 2956, 2959, 1342
 910, 1565, 1566, 1569, 1568, 2956, 2957, 2960, 2959
 911, 1566, 1567, 1570, 1569, 2957, 2958, 2961, 2960
 912, 1567,  381,  380, 1570, 2958, 1670, 1671, 2961
 913,  225, 1568, 1571,  226, 1342, 2959, 2962, 1341
 914, 1568, 1569, 1572, 1571, 2959, 2960, 2963, 2962
 915, 1569, 1570, 1573, 1572, 2960, 2961, 2964, 2963
 916, 1570,  380,  379, 1573, 2961, 1671, 1672, 2964
 917,  226, 1571, 1574,  227, 1341, 2962, 2965, 1340
 918, 1571, 1572, 1575, 1574, 2962, 2963, 2966, 2965
 919, 1572, 1573, 1576, 1575, 2963, 2964, 2967, 2966
 920, 1573,  379,  378, 1576, 2964, 1672, 1673, 2967
 921,  227, 1574, 1577,  228, 1340, 2965, 2968, 1339
 922, 1574, 1575, 1578, 1577, 2965, 2966, 2969, 2968
 923, 1575, 1576, 1579, 1578, 2966, 2967, 2970, 2969
 924, 1576,  378,  377, 1579, 2967, 1673, 1674, 2970
 925,  228, 1577, 1580,  229, 1339, 2968, 2971, 1338
 926, 1577, 1578, 1581, 1580, 2968, 2969, 2972, 2971
 927, 1578, 1579, 1582, 1581, 2969, 2970, 2973, 2972
 928, 1579,  377,  376, 1582, 2970, 1674, 1675, 2973
 929,  229, 1580, 1583,  230, 1338, 2971, 2974, 1337
 930, 1580, 1581, 1584, 1583, 2971, 2972, 2975, 2974
 931, 1581, 1582, 1585, 1584, 2972, 2973, 2976, 2975
 932, 1582,  376,  375, 1585, 2973, 1675, 1676, 2976
 933,  230, 1583, 1586,  231, 1337, 2974, 2977, 1336
 934, 1583, 1584, 1587, 1586, 2974, 2975, 2978, 2977
 935, 1584, 1585, 1588, 1587, 2975, 2976, 2979, 2978
 936, 1585,  375,  374, 1588, 2976, 1676, 1677, 2979
 937,  231, 1586, 1589,  232, 1336, 2977, 2980, 1335
 938, 1586, 1587, 1590, 1589, 2977, 2978, 2981, 2980
 939, 1587, 1588, 1591, 1590, 2978, 2979, 2982, 2981
 940, 1588,  374,  373, 1591, 2979, 1677, 1678, 2982
 941,  232, 1589, 1592,  233, 1335, 2980, 2983, 1334
 942, 1589, 1590, 1593, 1592, 2980, 2981, 2984, 2983
 943, 1590, 1591, 1594, 1593, 2981, 2982, 2985, 2984
 944, 1591,  373,  372, 1594, 2982, 1678, 1679, 2985
 945,  233, 1592, 1595,  234, 1334, 2983, 2986, 1333
 946, 1592, 1593, 1596, 1595, 2983, 2984, 2987, 2986
 947, 1593, 1594, 1597, 1596, 2984, 2985, 2988, 2987
 948, 1594,  372,  371, 1597, 2985, 1679, 1680, 2988
 949,  234, 1595, 1598,  235, 1333, 2986, 2989, 1332
 950, 1595, 1596, 1599, 1598, 2986, 2987, 2990, 2989
 951, 1596, 1597, 1600, 1599, 2987, 2988, 2991, 2990
 952, 1597,  371,  370, 1600, 2988, 1680, 1681, 2991
 953,  235, 1598, 1601,  236, 1332, 2989, 2992, 1331
 954, 1598, 1599, 1602, 1601, 2989, 2990, 2993, 2992
 955, 1599, 1600, 1603, 1602, 2990, 2991, 2994, 2993
 956, 1600,  370,  369, 1603, 2991, 1681, 1682, 2994
 957,  236, 1601, 1604,  237, 1331, 2992, 2995, 1330
 958, 1601, 1602, 1605, 1604, 2992, 2993, 2996, 2995
 959, 1602, 1603, 1606, 1605, 2993, 2994, 2997, 2996
 960, 1603,  369,  368, 1606, 2994, 1682, 1683, 2997
 961,  237, 1604, 1607,  238, 1330, 2995, 2998, 1329
 962, 1604, 1605, 1608, 1607, 2995, 2996, 2999, 2998
 963, 1605, 1606, 1609, 1608, 2996, 2997, 3000, 2999
 964, 1606,  368,  367, 1609, 2997, 1683, 1684, 3000
 965,  238, 1607, 1610,  239, 1329, 2998, 3001, 1328
 966, 1607, 1608, 1611, 1610, 2998, 2999, 3002, 3001
 967, 1608, 1609, 1612, 1611, 2999, 3000, 3003, 3002
 968, 1609,  367,  366, 1612, 3000, 1684, 1685, 3003
 969,  239, 1610, 1613,  240, 1328, 3001, 3004, 1327
 970, 1610, 1611, 1614, 1613, 3001, 3002, 3005, 3004
 971, 1611, 1612, 1615, 1614, 3002, 3003, 3006, 3005
 972, 1612,  366,  365, 1615, 3003, 1685, 1686, 3006
 973,  240, 1613, 1616,  241, 1327, 3004, 3007, 1326
 974, 1613, 1614, 1617, 1616, 3004, 3005, 3008, 3007
 975, 1614, 1615, 1618, 1617, 3005, 3006, 3009, 3008
 976, 1615,  365,  364, 1618, 3006, 1686, 1687, 3009
 977,  241, 1616, 1619,  242, 1326, 3007, 3010, 1325
 978, 1616, 1617, 1620, 1619, 3007, 3008, 3011, 3010
 979, 1617, 1618, 1621, 1620, 3008, 3009, 3012, 3011
 980, 1618,  364,  363, 1621, 3009, 1687, 1688, 3012
 981,  242, 1619, 1622,  243, 1325, 3010, 3013, 1324
 982, 1619, 1620, 1623, 1622, 3010, 3011, 3014, 3013
 983, 1620, 1621, 1624, 1623, 3011, 3012, 3015, 3014
 984, 1621,  363,  362, 1624, 3012, 1688, 1689, 3015
 985,  243, 1622, 1625,  244, 1324, 3013, 3016, 1323
 986, 1622, 1623, 1626, 1625, 3013, 3014, 3017, 3016
 987, 1623, 1624, 1627, 1626, 3014, 3015, 3018, 3017
 988, 1624,  362,  361, 1627, 3015, 1689, 1690, 3018
 989,  244, 1625, 1628,  245, 1323, 3016, 3019, 1322
 990, 1625, 1626, 1629, 1628, 3016, 3017, 3020, 3019
 991, 1626, 1627, 1630, 1629, 3017, 3018, 3021, 3020
 992, 1627,  361,  360, 1630, 3018, 1690, 1691, 3021
 993,  245, 1628, 1631,  246, 1322, 3019, 3022, 1321
 994, 1628, 1629, 1632, 1631, 3019, 3020, 3023, 3022
 995, 1629, 1630, 1633, 1632, 3020, 3021, 3024, 3023
 996, 1630,  360,  359, 1633, 3021, 1691, 1692, 3024
 997,  246, 1631, 1634,  247, 1321, 3022, 3025, 1320
 998, 1631, 1632, 1635, 1634, 3022, 3023, 3026, 3025
 999, 1632, 1633, 1636, 1635, 3023, 3024, 3027, 3026
1000, 1633,  359,  358, 1636, 3024, 1692, 1693, 3027
1001,  247, 1634, 1637,  248, 1320, 3025, 3028, 1319
1002, 1634, 1635, 1638, 1637, 3025, 3026, 3029, 3028
1003, 1635, 1636, 1639, 1638, 3026, 3027, 3030, 3029
1004, 1636,  358,  357, 1639, 3027, 1693, 1694, 3030
1005,  248, 1637, 1640,  249, 1319, 3028, 3031, 1318
1006, 1637, 1638, 1641, 1640, 3028, 3029, 3032, 3031
1007, 1638, 1639, 1642, 1641, 3029, 3030, 3033, 3032
1008, 1639,  357,  356, 1642, 3030, 1694, 1695, 3033
1009,  249, 1640, 1643,  250, 1318, 3031, 3034, 1317
1010, 1640, 1641, 1644, 1643, 3031, 3032, 3035, 3034
1011, 1641, 1642, 1645, 1644, 3032, 3033, 3036, 3035
1012, 1642,  356,  355, 1645, 3033, 1695, 1696, 3036
1013,  250, 1643, 1646,  251, 1317, 3034, 3037, 1316
1014, 1643, 1644, 1647, 1646, 3034, 3035, 3038, 3037
1015, 1644, 1645, 1648, 1647, 3035, 3036, 3039, 3038
1016, 1645,  355,  354, 1648, 3036, 1696, 1697, 3039
1017,  251, 1646, 1649,  252, 1316, 3037, 3040, 1315
1018, 1646, 1647, 1650, 1649, 3037, 3038, 3041, 3040
1019, 1647, 1648, 1651, 1650, 3038, 3039, 3042, 3041
1020, 1648,  354,  353, 1651, 3039, 1697, 1698, 3042
1021,  252, 1649, 1652,  253, 1315, 3040, 3043, 1314
1022, 1649, 1650, 1653, 1652, 3040, 3041, 3044, 3043
1023, 1650, 1651, 1654, 1653, 3041, 3042, 3045, 3044
1024, 1651,  353,  352, 1654, 3042, 1698, 1699, 3045
1025,  253, 1652, 1655,  254, 1314, 3043, 3046, 1313
1026, 1652, 1653, 1656, 1655, 3043, 3044, 3047, 3046
1027, 1653, 1654, 1657, 1656, 3044, 3045, 3048, 3047
1028, 1654,  352,  351, 1657, 3045, 1699, 1700, 3048
1029,  254, 1655, 1658,  255, 1313, 3046, 3049, 1312
1030, 1655, 1656, 1659, 1658, 3046, 3047, 3050, 3049
1031, 1656, 1657, 1660, 1659, 3047, 3048, 3051, 3050
1032, 1657,  351,  350, 1660, 3048, 1700, 1701, 3051
1033,  255, 1658, 1661,  256, 1312, 3049, 3052, 1311
1034, 1658, 1659, 1662, 1661, 3049, 3050, 3053, 3052
1035, 1659, 1660, 1663, 1662, 3050, 3051, 3054, 3053
1036, 1660,  350,  349, 1663, 3051, 1701, 1702, 3054
1037,  256, 1661,  388,   10, 1311, 3052, 1706,  257
1038, 1661, 1662,  389,  388, 3052, 3053, 1707, 1706
1039, 1662, 1663,  390,  389, 3053, 3054, 1708, 1707
1040, 1663,  349,   16,  390, 3054, 1702,  391, 1708
1041,  523, 1949, 3055, 1943,   17,  393, 1709,  476
1042, 1949, 1950, 3056, 3055,  393,  394, 1710, 1709
1043, 1950, 1951, 3057, 3056,  394,  395, 1711, 1710
1044, 1951, 1952, 3058, 3057,  395,  396, 1712, 1711
1045, 1952, 1953, 3059, 3058,  396,  397, 1713, 1712
1046, 1953, 1954, 3060, 3059,  397,  398, 1714, 1713
1047, 1954, 1955, 3061, 3060,  398,  399, 1715, 1714
1048, 1955, 1956, 3062, 3061,  399,  400, 1716, 1715
1049, 1956, 1957, 3063, 3062,  400,  401, 1717, 1716
1050, 1957, 1958, 3064, 3063,  401,  402, 1718, 1717
1051, 1958, 1959, 3065, 3064,  402,  403, 1719, 1718
1052, 1959, 1960, 3066, 3065,  403,  404, 1720, 1719
1053, 1960, 1961, 3067, 3066,  404,  405, 1721, 1720
1054, 1961, 1962, 3068, 3067,  405,  406, 1722, 1721
1055, 1962, 1963, 3069, 3068,  406,  407, 1723, 1722
1056, 1963, 1964, 3070, 3069,  407,  408, 1724, 1723
1057, 1964, 1965, 3071, 3070,  408,  409, 1725, 1724
1058, 1965, 1966, 3072, 3071,  409,  410, 1726, 1725
1059, 1966, 1967, 3073, 3072,  410,  411, 1727, 1726
1060, 1967, 1968, 3074, 3073,  411,  412, 1728, 1727
1061, 1968, 1969, 3075, 3074,  412,  413, 1729, 1728
1062, 1969, 1970, 3076, 3075,  413,  414, 1730, 1729
1063, 1970, 1971, 3077, 3076,  414,  415, 1731, 1730
1064, 1971, 1972, 3078, 3077,  415,  416, 1732, 1731
1065, 1972, 1973, 3079, 3078,  416,  417, 1733, 1732
1066, 1973, 1974, 3080, 3079,  417,  418, 1734, 1733
1067, 1974, 1975, 3081, 3080,  418,  419, 1735, 1734
1068, 1975, 1976, 3082, 3081,  419,  420, 1736, 1735
1069, 1976, 1977, 3083, 3082,  420,  421, 1737, 1736
1070, 1977, 1978, 3084, 3083,  421,  422, 1738, 1737
1071, 1978, 1979, 3085, 3084,  422,  423, 1739, 1738
1072, 1979, 1980, 3086, 3085,  423,  424, 1740, 1739
1073, 1980, 1981, 3087, 3086,  424,  425, 1741, 1740
1074, 1981, 1982, 3088, 3087,  425,  426, 1742, 1741
1075, 1982, 1983, 3089, 3088,  426,  427, 1743, 1742
1076, 1983, 1984, 3090, 3089,  427,  428, 1744, 1743
1077, 1984, 1985, 3091, 3090,  428,  429, 1745, 1744
1078, 1985, 1986, 3092, 3091,  429,  430, 1746, 1745
1079, 1986, 1987, 3093, 3092,  430,  431, 1747, 1746
1080, 1987,  525, 1946, 3093,  431,   18,  432, 1747
1081, 1943, 3055, 3094, 1944,  476, 1709, 1748,  475
1082, 3055, 3056, 3095, 3094, 1709, 1710, 1749, 1748
1083, 3056, 3057, 3096, 3095, 1710, 1711, 1750, 1749
1084, 3057, 3058, 3097, 3096, 1711, 1712, 1751, 1750
1085, 3058, 3059, 3098, 3097, 1712, 1713, 1752, 1751
1086, 3059, 3060, 3099, 3098, 1713, 1714, 1753, 1752
1087, 3060, 3061, 3100, 3099, 1714, 1715, 1754, 1753
1088, 3061, 3062, 3101, 3100, 1715, 1716, 1755, 1754
1089, 3062, 3063, 3102, 3101, 1716, 1717, 1756, 1755
1090, 3063, 3064, 3103, 3102, 1717, 1718, 1757, 1756
1091, 3064, 3065, 3104, 3103, 1718, 1719, 1758, 1757
1092, 3065, 3066, 3105, 3104, 1719, 1720, 1759, 1758
1093, 3066, 3067, 3106, 3105, 1720, 1721, 1760, 1759
1094, 3067, 3068, 3107, 3106, 1721, 1722, 1761, 1760
1095, 3068, 3069, 3108, 3107, 1722, 1723, 1762, 1761
1096, 3069, 3070, 3109, 3108, 1723, 1724, 1763, 1762
1097, 3070, 3071, 3110, 3109, 1724, 1725, 1764, 1763
1098, 3071, 3072, 3111, 3110, 1725, 1726, 1765, 1764
1099, 3072, 3073, 3112, 3111, 1726, 1727, 1766, 1765
1100, 3073, 3074, 3113, 3112, 1727, 1728, 1767, 1766
1101, 3074, 3075, 3114, 3113, 1728, 1729, 1768, 1767
1102, 3075, 3076, 3115, 3114, 1729, 1730, 1769, 1768
1103, 3076, 3077, 3116, 3115, 1730, 1731, 1770, 1769
1104, 3077, 3078, 3117, 3116, 1731, 1732, 1771, 1770
1105, 3078, 3079, 3118, 3117, 1732, 1733, 1772, 1771
1106, 3079, 3080, 3119, 3118, 1733, 1734, 1773, 1772
1107, 3080, 3081, 3120, 3119, 1734, 1735, 1774, 1773
1108, 3081, 3082, 3121, 3120, 1735, 1736, 1775, 1774
1109, 3082, 3083, 3122, 3121, 1736, 1737, 1776, 1775
1110, 3083, 3084, 3123, 3122, 1737, 1738, 1777, 1776
1111, 3084, 3085, 3124, 3123, 1738, 1739, 1778, 1777
1112, 3085, 3086, 3125, 3124, 1739, 1740, 1779, 1778
1113, 3086, 3087, 3126, 3125, 1740, 1741, 1780, 1779
1114, 3087, 3088, 3127, 3126, 1741, 1742, 1781, 1780
1115, 3088, 3089, 3128, 3127, 1742, 1743, 1782, 1781
1116, 3089, 3090, 3129, 3128, 1743, 1744, 1783, 1782
1117, 3090, 3091, 3130, 3129, 1744, 1745, 1784, 1783
1118, 3091, 3092, 3131, 3130, 1745, 1746, 1785, 1784
1119, 3092, 3093, 3132, 3131, 1746, 1747, 1786, 1785
1120, 3093, 1946, 1947, 3132, 1747,  432,  433, 1786
1121, 1944, 3094, 3133, 1945,  475, 1748, 1787,  474
1122, 3094, 3095, 3134, 3133, 1748, 1749, 1788, 1787
1123, 3095, 3096, 3135, 3134, 1749, 1750, 1789, 1788
1124, 3096, 3097, 3136, 3135, 1750, 1751, 1790, 1789
1125, 3097, 3098, 3137, 3136, 1751, 1752, 1791, 1790
1126, 3098, 3099, 3138, 3137, 1752, 1753, 1792, 1791
1127, 3099, 3100, 3139, 3138, 1753, 1754, 1793, 1792
1128, 3100, 3101, 3140, 3139, 1754, 1755, 1794, 1793
1129, 3101, 3102, 3141, 3140, 1755, 1756, 1795, 1794
1130, 3102, 3103, 3142, 3141, 1756, 1757, 1796, 1795
1131, 3103, 3104, 3143, 3142, 1757, 1758, 1797, 1796
1132, 3104, 3105, 3144, 3143, 1758, 1759, 1798, 1797
1133, 3105, 3106, 3145, 3144, 1759, 1760, 1799, 1798
1134, 3106, 3107, 3146, 3145, 1760, 1761, 1800, 1799
1135, 3107, 3108, 3147, 3146, 1761, 1762, 1801, 1800
1136, 3108, 3109, 3148, 3147, 1762, 1763, 1802, 1801
1137, 3109, 3110, 3149, 3148, 1763, 1764, 1803, 1802
1138, 3110, 3111, 3150, 3149, 1764, 1765, 1804, 1803
1139, 3111, 3112, 3151, 3150, 1765, 1766, 1805, 1804
1140, 3112, 3113, 3152, 3151, 1766, 1767, 1806, 1805
1141, 3113, 3114, 3153, 3152, 1767, 1768, 1807, 1806
1142, 3114, 3115, 3154, 3153, 1768, 1769, 1808, 1807
1143, 3115, 3116, 3155, 3154, 1769, 1770, 1809, 1808
1144, 3116, 3117, 3156, 3155, 1770, 1771, 1810, 1809
1145, 3117, 3118, 3157, 3156, 1771, 1772, 1811, 1810
1146, 3118, 3119, 3158, 3157, 1772, 1773, 1812, 1811
1147, 3119, 3120, 3159, 3158, 1773, 1774, 1813, 1812
1148, 3120, 3121, 3160, 3159, 1774, 1775, 1814, 1813
1149, 3121, 3122, 3161, 3160, 1775, 1776, 1815, 1814
1150, 3122, 3123, 3162, 3161, 1776, 1777, 1816, 1815
1151, 3123, 3124, 3163, 3162, 1777, 1778, 1817, 1816
1152, 3124, 3125, 3164, 3163, 1778, 1779, 1818, 1817
1153, 3125, 3126, 3165, 3164, 1779, 1780, 1819, 1818
1154, 3126, 3127, 3166, 3165, 1780, 1781, 1820, 1819
1155, 3127, 3128, 3167, 3166, 1781, 1782, 1821, 1820
1156, 3128, 3129, 3168, 3167, 1782, 1783, 1822, 1821
1157, 3129, 3130, 3169, 3168, 1783, 1784, 1823, 1822
1158, 3130, 3131, 3170, 3169, 1784, 1785, 1824, 1823
1159, 3131, 3132, 3171, 3170, 1785, 1786, 1825, 1824
1160, 3132, 1947, 1948, 3171, 1786,  433,  434, 1825
1161, 1945, 3133, 1988,  522,  474, 1787,  473,   20
1162, 3133, 3134, 1989, 1988, 1787, 1788,  472,  473
1163, 3134, 3135, 1990, 1989, 1788, 1789,  471,  472
1164, 3135, 3136, 1991, 1990, 1789, 1790,  470,  471
1165, 3136, 3137, 1992, 1991, 1790, 1791,  469,  470
1166, 3137, 3138, 1993, 1992, 1791, 1792,  468,  469
1167, 3138, 3139, 1994, 1993, 1792, 1793,  467,  468
1168, 3139, 3140, 1995, 1994, 1793, 1794,  466,  467
1169, 3140, 3141, 1996, 1995, 1794, 1795,  465,  466
1170, 3141, 3142, 1997, 1996, 1795, 1796,  464,  465
1171, 3142, 3143, 1998, 1997, 1796, 1797,  463,  464
1172, 3143, 3144, 1999, 1998, 1797, 1798,  462,  463
1173, 3144, 3145, 2000, 1999, 1798, 1799,  461,  462
1174, 3145, 3146, 2001, 2000, 1799, 1800,  460,  461
1175, 3146, 3147, 2002, 2001, 1800, 1801,  459,  460
1176, 3147, 3148, 2003, 2002, 1801, 1802,  458,  459
1177, 3148, 3149, 2004, 2003, 1802, 1803,  457,  458
1178, 3149, 3150, 2005, 2004, 1803, 1804,  456,  457
1179, 3150, 3151, 2006, 2005, 1804, 1805,  455,  456
1180, 3151, 3152, 2007, 2006, 1805, 1806,  454,  455
1181, 3152, 3153, 2008, 2007, 1806, 1807,  453,  454
1182, 3153, 3154, 2009, 2008, 1807, 1808,  452,  453
1183, 3154, 3155, 2010, 2009, 1808, 1809,  451,  452
1184, 3155, 3156, 2011, 2010, 1809, 1810,  450,  451
1185, 3156, 3157, 2012, 2011, 1810, 1811,  449,  450
1186, 3157, 3158, 2013, 2012, 1811, 1812,  448,  449
1187, 3158, 3159, 2014, 2013, 1812, 1813,  447,  448
1188, 3159, 3160, 2015, 2014, 1813, 1814,  446,  447
1189, 3160, 3161, 2016, 2015, 1814, 1815,  445,  446
1190, 3161, 3162, 2017, 2016, 1815, 1816,  444,  445
1191, 3162, 3163, 2018, 2017, 1816, 1817,  443,  444
1192, 3163, 3164, 2019, 2018, 1817, 1818,  442,  443
1193, 3164, 3165, 2020, 2019, 1818, 1819,  441,  442
1194, 3165, 3166, 2021, 2020, 1819, 1820,  440,  441
1195, 3166, 3167, 2022, 2021, 1820, 1821,  439,  440
1196, 3167, 3168, 2023, 2022, 1821, 1822,  438,  439
1197, 3168, 3169, 2024, 2023, 1822, 1823,  437,  438
1198, 3169, 3170, 2025, 2024, 1823, 1824,  436,  437
1199, 3170, 3171, 2026, 2025, 1824, 1825,  435,  436
1200, 3171, 1948,  524, 2026, 1825,  434,   19,  435
1201,    4,   84, 1826,  519,  523, 1949, 3055, 1943
1202,   84,   85, 1827, 1826, 1949, 1950, 3056, 3055
1203,   85,   86, 1828, 1827, 1950, 1951, 3057, 3056
1204,   86,   87, 1829, 1828, 1951, 1952, 3058, 3057
1205,   87,   88, 1830, 1829, 1952, 1953, 3059, 3058
1206,   88,   89, 1831, 1830, 1953, 1954, 3060, 3059
1207,   89,   90, 1832, 1831, 1954, 1955, 3061, 3060
1208,   90,   91, 1833, 1832, 1955, 1956, 3062, 3061
1209,   91,   92, 1834, 1833, 1956, 1957, 3063, 3062
1210,   92,   93, 1835, 1834, 1957, 1958, 3064, 3063
1211,   93,   94, 1836, 1835, 1958, 1959, 3065, 3064
1212,   94,   95, 1837, 1836, 1959, 1960, 3066, 3065
1213,   95,   96, 1838, 1837, 1960, 1961, 3067, 3066
1214,   96,   97, 1839, 1838, 1961, 1962, 3068, 3067
1215,   97,   98, 1840, 1839, 1962, 1963, 3069, 3068
1216,   98,   99, 1841, 1840, 1963, 1964, 3070, 3069
1217,   99,  100, 1842, 1841, 1964, 1965, 3071, 3070
1218,  100,  101, 1843, 1842, 1965, 1966, 3072, 3071
1219,  101,  102, 1844, 1843, 1966, 1967, 3073, 3072
1220,  102,  103, 1845, 1844, 1967, 1968, 3074, 3073
1221,  103,  104, 1846, 1845, 1968, 1969, 3075, 3074
1222,  104,  105, 1847, 1846, 1969, 1970, 3076, 3075
1223,  105,  106, 1848, 1847, 1970, 1971, 3077, 3076
1224,  106,  107, 1849, 1848, 1971, 1972, 3078, 3077
1225,  107,  108, 1850, 1849, 1972, 1973, 3079, 3078
1226,  108,  109, 1851, 1850, 1973, 1974, 3080, 3079
1227,  109,  110, 1852, 1851, 1974, 1975, 3081, 3080
1228,  110,  111, 1853, 1852, 1975, 1976, 3082, 3081
1229,  111,  112, 1854, 1853, 1976, 1977, 3083, 3082
1230,  112,  113, 1855, 1854, 1977, 1978, 3084, 3083
1231,  113,  114, 1856, 1855, 1978, 1979, 3085, 3084
1232,  114,  115, 1857, 1856, 1979, 1980, 3086, 3085
1233,  115,  116, 1858, 1857, 1980, 1981, 3087, 3086
1234,  116,  117, 1859, 1858, 1981, 1982, 3088, 3087
1235,  117,  118, 1860, 1859, 1982, 1983, 3089, 3088
1236,  118,  119, 1861, 1860, 1983, 1984, 3090, 3089
1237,  119,  120, 1862, 1861, 1984, 1985, 3091, 3090
1238,  120,  121, 1863, 1862, 1985, 1986, 3092, 3091
1239,  121,  122, 1864, 1863, 1986, 1987, 3093, 3092
1240,  122,    1,  479, 1864, 1987,  525, 1946, 3093
1241,  519, 1826, 1865,  520, 1943, 3055, 3094, 1944
1242, 1826, 1827, 1866, 1865, 3055, 3056, 3095, 3094
1243, 1827, 1828, 1867, 1866, 3056, 3057, 3096, 3095
1244, 1828, 1829, 1868, 1867, 3057, 3058, 3097, 3096
1245, 1829, 1830, 1869, 1868, 3058, 3059, 3098, 3097
1246, 1830, 1831, 1870, 1869, 3059, 3060, 3099, 3098
1247, 1831, 1832, 1871, 1870, 3060, 3061, 3100, 3099
1248, 1832, 1833, 1872, 1871, 3061, 3062, 3101, 3100
1249, 1833, 1834, 1873, 1872, 3062, 3063, 3102, 3101
1250, 1834, 1835, 1874, 1873, 3063, 3064, 3103, 3102
1251, 1835, 1836, 1875, 1874, 3064, 3065, 3104, 3103
1252, 1836, 1837, 1876, 1875, 3065, 3066, 3105, 3104
1253, 1837, 1838, 1877, 1876, 3066, 3067, 3106, 3105
1254, 1838, 1839, 1878, 1877, 3067, 3068, 3107, 3106
1255, 1839, 1840, 1879, 1878, 3068, 3069, 3108, 3107
1256, 1840, 1841, 1880, 1879, 3069, 3070, 3109, 3108
1257, 1841, 1842, 1881, 1880, 3070, 3071, 3110, 3109
1258, 1842, 1843, 1882, 1881, 3071, 3072, 3111, 3110
1259, 1843, 1844, 1883, 1882, 3072, 3073, 3112, 3111
1260, 1844, 1845, 1884, 1883, 3073, 3074, 3113, 3112
1261, 1845, 1846, 1885, 1884, 3074, 3075, 3114, 3113
1262, 1846, 1847, 1886, 1885, 3075, 3076, 3115, 3114
1263, 1847, 1848, 1887, 1886, 3076, 3077, 3116, 3115
1264, 1848, 1849, 1888, 1887, 3077, 3078, 3117, 3116
1265, 1849, 1850, 1889, 1888, 3078, 3079, 3118, 3117
1266, 1850, 1851, 1890, 1889, 3079, 3080, 3119, 3118
1267, 1851, 1852, 1891, 1890, 3080, 3081, 3120, 3119
1268, 1852, 1853, 1892, 1891, 3081, 3082, 3121, 3120
1269, 1853, 1854, 1893, 1892, 3082, 3083, 3122, 3121
1270, 1854, 1855, 1894, 1893, 3083, 3084, 3123, 3122
1271, 1855, 1856, 1895, 1894, 3084, 3085, 3124, 3123
1272, 1856, 1857, 1896, 1895, 3085, 3086, 3125, 3124
1273, 1857, 1858, 1897, 1896, 3086, 3087, 3126, 3125
1274, 1858, 1859, 1898, 1897, 3087, 3088, 3127, 3126
1275, 1859, 1860, 1899, 1898, 3088, 3089, 3128, 3127
1276, 1860, 1861, 1900, 1899, 3089, 3090, 3129, 3128
1277, 1861, 1862, 1901, 1900, 3090, 3091, 3130, 3129
1278, 1862, 1863, 1902, 1901, 3091, 3092, 3131, 3130
1279, 1863, 1864, 1903, 1902, 3092, 3093, 3132, 3131
1280, 1864,  479,  478, 1903, 3093, 1946, 1947, 3132
1281,  520, 1865, 1904,  521, 1944, 3094, 3133, 1945
1282, 1865, 1866, 1905, 1904, 3094, 3095, 3134, 3133
1283, 1866, 1867, 1906, 1905, 3095, 3096, 3135, 3134
1284, 1867, 1868, 1907, 1906, 3096, 3097, 3136, 3135
1285, 1868, 1869, 1908, 1907, 3097, 3098, 3137, 3136
1286, 1869, 1870, 1909, 1908, 3098, 3099, 3138, 3137
1287, 1870, 1871, 1910, 1909, 3099, 3100, 3139, 3138
1288, 1871, 1872, 1911, 1910, 3100, 3101, 3140, 3139
1289, 1872, 1873, 1912, 1911, 3101, 3102, 3141, 3140
1290, 1873, 1874, 1913, 1912, 3102, 3103, 3142, 3141
1291, 1874, 1875, 1914, 1913, 3103, 3104, 3143, 3142
1292, 1875, 1876, 1915, 1914, 3104, 3105, 3144, 3143
1293, 1876, 1877, 1916, 1915, 3105, 3106, 3145, 3144
1294, 1877, 1878, 1917, 1916, 3106, 3107, 3146, 3145
1295, 1878, 1879, 1918, 1917, 3107, 3108, 3147, 3146
1296, 1879, 1880, 1919, 1918, 3108, 3109, 3148, 3147
1297, 1880, 1881, 1920, 1919, 3109, 3110, 3149, 3148
1298, 1881, 1882, 1921, 1920, 3110, 3111, 3150, 3149
1299, 1882, 1883, 1922, 1921, 3111, 3112, 3151, 3150
1300, 1883, 1884, 1923, 1922, 3112, 3113, 3152, 3151
1301, 1884, 1885, 1924, 1923, 3113, 3114, 3153, 3152
1302, 1885, 1886, 1925, 1924, 3114, 3115, 3154, 3153
1303, 1886, 1887, 1926, 1925, 3115, 3116, 3155, 3154
1304, 1887, 1888, 1927, 1926, 3116, 3117, 3156, 3155
1305, 1888, 1889, 1928, 1927, 3117, 3118, 3157, 3156
1306, 1889, 1890, 1929, 1928, 3118, 3119, 3158, 3157
1307, 1890, 1891, 1930, 1929, 3119, 3120, 3159, 3158
1308, 1891, 1892, 1931, 1930, 3120, 3121, 3160, 3159
1309, 1892, 1893, 1932, 1931, 3121, 3122, 3161, 3160
1310, 1893, 1894, 1933, 1932, 3122, 3123, 3162, 3161
1311, 1894, 1895, 1934, 1933, 3123, 3124, 3163, 3162
1312, 1895, 1896, 1935, 1934, 3124, 3125, 3164, 3163
1313, 1896, 1897, 1936, 1935, 3125, 3126, 3165, 3164
1314, 1897, 1898, 1937, 1936, 3126, 3127, 3166, 3165
1315, 1898, 1899, 1938, 1937, 3127, 3128, 3167, 3166
1316, 1899, 1900, 1939, 1938, 3128, 3129, 3168, 3167
1317, 1900, 1901, 1940, 1939, 3129, 3130, 3169, 3168
1318, 1901, 1902, 1941, 1940, 3130, 3131, 3170, 3169
1319, 1902, 1903, 1942, 1941, 3131, 3132, 3171, 3170
1320, 1903,  478,  477, 1942, 3132, 1947, 1948, 3171
1321,  521, 1904,  480,   22, 1945, 3133, 1988,  522
1322, 1904, 1905,  481,  480, 3133, 3134, 1989, 1988
1323, 1905, 1906,  482,  481, 3134, 3135, 1990, 1989
1324, 1906, 1907,  483,  482, 3135, 3136, 1991, 1990
1325, 1907, 1908,  484,  483, 3136, 3137, 1992, 1991
1326, 1908, 1909,  485,  484, 3137, 3138, 1993, 1992
1327, 1909, 1910,  486,  485, 3138, 3139, 1994, 1993
1328, 1910, 1911,  487,  486, 3139, 3140, 1995, 1994
1329, 1911, 1912,  488,  487, 3140, 3141, 1996, 1995
1330, 1912, 1913,  489,  488, 3141, 3142, 1997, 1996
1331, 1913, 1914,  490,  489, 3142, 3143, 1998, 1997
1332, 1914, 1915,  491,  490, 3143, 3144, 1999, 1998
1333, 1915, 1916,  492,  491, 3144, 3145, 2000, 1999
1334, 1916, 1917,  493,  492, 3145, 3146, 2001, 2000
1335, 1917, 1918,  494,  493, 3146, 3147, 2002, 2001
1336, 1918, 1919,  495,  494, 3147, 3148, 2003, 2002
1337, 1919, 1920,  496,  495, 3148, 3149, 2004, 2003
1338, 1920, 1921,  497,  496, 3149, 3150, 2005, 2004
1339, 1921, 1922,  498,  497, 3150, 3151, 2006, 2005
1340, 1922, 1923,  499,  498, 3151, 3152, 2007, 2006
1341, 1923, 1924,  500,  499, 3152, 3153, 2008, 2007
1342, 1924, 1925,  501,  500, 3153, 3154, 2009, 2008
1343, 1925, 1926,  502,  501, 3154, 3155, 2010, 2009
1344, 1926, 1927,  503,  502, 3155, 3156, 2011, 2010
1345, 1927, 1928,  504,  503, 3156, 3157, 2012, 2011
1346, 1928, 1929,  505,  504, 3157, 3158, 2013, 2012
1347, 1929, 1930,  506,  505, 3158, 3159, 2014, 2013
1348, 1930, 1931,  507,  506, 3159, 3160, 2015, 2014
1349, 1931, 1932,  508,  507, 3160, 3161, 2016, 2015
1350, 1932, 1933,  509,  508, 3161, 3162, 2017, 2016
1351, 1933, 1934,  510,  509, 3162, 3163, 2018, 2017
1352, 1934, 1935,  511,  510, 3163, 3164, 2019, 2018
1353, 1935, 1936,  512,  511, 3164, 3165, 2020, 2019
1354, 1936, 1937,  513,  512, 3165, 3166, 2021, 2020
1355, 1937, 1938,  514,  513, 3166, 3167, 2022, 2021
1356, 1938, 1939,  515,  514, 3167, 3168, 2023, 2022
1357, 1939, 1940,  516,  515, 3168, 3169, 2024, 2023
1358, 1940, 1941,  517,  516, 3169, 3170, 2025, 2024
1359, 1941, 1942,  518,  517, 3170, 3171, 2026, 2025
1360, 1942,  477,   21,  518, 3171, 1948,  524, 2026
1361,  656, 2339, 3172, 2261,    8,  526, 2027,  174
1362, 2339, 2340, 3173, 3172,  526,  527, 2028, 2027
1363, 2340, 2341, 3174, 3173,  527,  528, 2029, 2028
1364, 2341,  658, 2300, 3174,  528,   23,  529, 2029
1365, 2261, 3172, 3175, 2262,  174, 2027, 2030,  175
1366, 3172, 3173, 3176, 3175, 2027, 2028, 2031, 2030
1367, 3173, 3174, 3177, 3176, 2028, 2029, 2032, 2031
1368, 3174, 2300, 2301, 3177, 2029,  529,  530, 2032
1369, 2262, 3175, 3178, 2263,  175, 2030, 2033,  176
1370, 3175, 3176, 3179, 3178, 2030, 2031, 2034, 2033
1371, 3176, 3177, 3180, 3179, 2031, 2032, 2035, 2034
1372, 3177, 2301, 2302, 3180, 2032,  530,  531, 2035
1373, 2263, 3178, 3181, 2264,  176, 2033, 2036,  177
1374, 3178, 3179, 3182, 3181, 2033, 2034, 2037, 2036
1375, 3179, 3180, 3183, 3182, 2034, 2035, 2038, 2037
1376, 3180, 2302, 2303, 3183, 2035,  531,  532, 2038
1377, 2264, 3181, 3184, 2265,  177, 2036, 2039,  178
1378, 3181, 3182, 3185, 3184, 2036, 2037, 2040, 2039
1379, 3182, 3183, 3186, 3185, 2037, 2038, 2041, 2040
1380, 3183, 2303, 2304, 3186, 2038,  532,  533, 2041
1381, 2265, 3184, 3187, 2266,  178, 2039, 2042,  179
1382, 3184, 3185, 3188, 3187, 2039, 2040, 2043, 2042
1383, 3185, 3186, 3189, 3188, 2040, 2041, 2044, 2043
1384, 3186, 2304, 2305, 3189, 2041,  533,  534, 2044
1385, 2266, 3187, 3190, 2267,  179, 2042, 2045,  180
1386, 3187, 3188, 3191, 3190, 2042, 2043, 2046, 2045
1387, 3188, 3189, 3192, 3191, 2043, 2044, 2047, 2046
1388, 3189, 2305, 2306, 3192, 2044,  534,  535, 2047
1389, 2267, 3190, 3193, 2268,  180, 2045, 2048,  181
1390, 3190, 3191, 3194, 3193, 2045, 2046, 2049, 2048
1391, 3191, 3192, 3195, 3194, 2046, 2047, 2050, 2049
1392, 3192, 2306, 2307, 3195, 2047,  535,  536, 2050
1393, 2268, 3193, 3196, 2269,  181, 2048, 2051,  182
1394, 3193, 3194, 3197, 3196, 2048, 2049, 2052, 2051
1395, 3194, 3195, 3198, 3197, 2049, 2050, 2053, 2052
1396, 3195, 2307, 2308, 3198, 2050,  536,  537, 2053
1397, 2269, 3196, 3199, 2270,  182, 2051, 2054,  183
1398, 3196, 3197, 3200, 3199, 2051, 2052, 2055, 2054
1399, 3197, 3198, 3201, 3200, 2052, 2053, 2056, 2055
1400, 3198, 2308, 2309, 3201, 2053,  537,  538, 2056
1401, 2270, 3199, 3202, 2271,  183, 2054, 2057,  184
1402, 3199, 3200, 3203, 3202, 2054, 2055, 2058, 2057
1403, 3200, 3201, 3204, 3203, 2055, 2056, 2059, 2058
1404, 3201, 2309, 2310, 3204, 2056,  538,  539, 2059
1405, 2271, 3202, 3205, 2272,  184, 2057, 2060,  185
1406, 3202, 3203, 3206, 3205, 2057, 2058, 2061, 2060
1407, 3203, 3204, 3207, 3206, 2058, 2059, 2062, 2061
1408, 3204, 2310, 2311, 3207, 2059,  539,  540, 2062
1409, 2272, 3205, 3208, 2273,  185, 2060, 2063,  186
1410, 3205, 3206, 3209, 3208, 2060, 2061, 2064, 2063
1411, 3206, 3207, 3210, 3209, 2061, 2062, 2065, 2064
1412, 3207, 2311, 2312, 3210, 2062,  540,  541, 2065
1413, 2273, 3208, 3211, 2274,  186, 2063, 2066,  187
1414, 3208, 3209, 3212, 3211, 2063, 2064, 2067, 2066
1415, 3209, 3210, 3213, 3212, 2064, 2065, 2068, 2067
1416, 3210, 2312, 2313, 3213, 2065,  541,  542, 2068
1417, 2274, 3211, 3214, 2275,  187, 2066, 2069,  188
1418, 3211, 3212, 3215, 3214, 2066, 2067, 2070, 2069
1419, 3212, 3213, 3216, 3215, 2067, 2068, 2071, 2070
1420, 3213, 2313, 2314, 3216, 2068,  542,  543, 2071
1421, 2275, 3214, 3217, 2276,  188, 2069, 2072,  189
1422, 3214, 3215, 3218, 3217, 2069, 2070, 2073, 2072
1423, 3215, 3216, 3219, 3218, 2070, 2071, 2074, 2073
1424, 3216, 2314, 2315, 3219, 2071,  543,  544, 2074
1425, 2276, 3217, 3220, 2277,  189, 2072, 2075,  190
1426, 3217, 3218, 3221, 3220, 2072, 2073, 2076, 2075
1427, 3218, 3219, 3222, 3221, 2073, 2074, 2077, 2076
1428, 3219, 2315, 2316, 3222, 2074,  544,  545, 2077
1429, 2277, 3220, 3223, 2278,  190, 2075, 2078,  191
1430, 3220, 3221, 3224, 3223, 2075, 2076, 2079, 2078
1431, 3221, 3222, 3225, 3224, 2076, 2077, 2080, 2079
1432, 3222, 2316, 2317, 3225, 2077,  545,  546, 2080
1433, 2278, 3223, 3226, 2279,  191, 2078, 2081,  192
1434, 3223, 3224, 3227, 3226, 2078, 2079, 2082, 2081
1435, 3224, 3225, 3228, 3227, 2079, 2080, 2083, 2082
1436, 3225, 2317, 2318, 3228, 2080,  546,  547, 2083
1437, 2279, 3226, 3229, 2280,  192, 2081, 2084,  193
1438, 3226, 3227, 3230, 3229, 2081, 2082, 2085, 2084
1439, 3227, 3228, 3231, 3230, 2082, 2083, 2086, 2085
1440, 3228, 2318, 2319, 3231, 2083,  547,  548, 2086
1441, 2280, 3229, 3232, 2281,  193, 2084, 2087,  194
1442, 3229, 3230, 3233, 3232, 2084, 2085, 2088, 2087
1443, 3230, 3231, 3234, 3233, 2085, 2086, 2089, 2088
1444, 3231, 2319, 2320, 3234, 2086,  548,  549, 2089
1445, 2281, 3232, 3235, 2282,  194, 2087, 2090,  195
1446, 3232, 3233, 3236, 3235, 2087, 2088, 2091, 2090
1447, 3233, 3234, 3237, 3236, 2088, 2089, 2092, 2091
1448, 3234, 2320, 2321, 3237, 2089,  549,  550, 2092
1449, 2282, 3235, 3238, 2283,  195, 2090, 2093,  196
1450, 3235, 3236, 3239, 3238, 2090, 2091, 2094, 2093
1451, 3236, 3237, 3240, 3239, 2091, 2092, 2095, 2094
1452, 3237, 2321, 2322, 3240, 2092,  550,  551, 2095
1453, 2283, 3238, 3241, 2284,  196, 2093, 2096,  197
1454, 3238, 3239, 3242, 3241, 2093, 2094, 2097, 2096
1455, 3239, 3240, 3243, 3242, 2094, 2095, 2098, 2097
1456, 3240, 2322, 2323, 3243, 2095,  551,  552, 2098
1457, 2284, 3241, 3244, 2285,  197, 2096, 2099,  198
1458, 3241, 3242, 3245, 3244, 2096, 2097, 2100, 2099
1459, 3242, 3243, 3246, 3245, 2097, 2098, 2101, 2100
1460, 3243, 2323, 2324, 3246, 2098,  552,  553, 2101
1461, 2285, 3244, 3247, 2286,  198, 2099, 2102,  199
1462, 3244, 3245, 3248, 3247, 2099, 2100, 2103, 2102
1463, 3245, 3246, 3249, 3248, 2100, 2101, 2104, 2103
1464, 3246, 2324, 2325, 3249, 2101,  553,  554, 2104
1465, 2286, 3247, 3250, 2287,  199, 2102, 2105,  200
1466, 3247, 3248, 3251, 3250, 2102, 2103, 2106, 2105
1467, 3248, 3249, 3252, 3251, 2103, 2104, 2107, 2106
1468, 3249, 2325, 2326, 3252, 2104,  554,  555, 2107
1469, 2287, 3250, 3253, 2288,  200, 2105, 2108,  201
1470, 3250, 3251, 3254, 3253, 2105, 2106, 2109, 2108
1471, 3251, 3252, 3255, 3254, 2106, 2107, 2110, 2109
1472, 3252, 2326, 2327, 3255, 2107,  555,  556, 2110
1473, 2288, 3253, 3256, 2289,  201, 2108, 2111,  202
1474, 3253, 3254, 3257, 3256, 2108, 2109, 2112, 2111
1475, 3254, 3255, 3258, 3257, 2109, 2110, 2113, 2112
1476, 3255, 2327, 2328, 3258, 2110,  556,  557, 2113
1477, 2289, 3256, 3259, 2290,  202, 2111, 2114,  203
1478, 3256, 3257, 3260, 3259, 2111, 2112, 2115, 2114
1479, 3257, 3258, 3261, 3260, 2112, 2113, 2116, 2115
1480, 3258, 2328, 2329, 3261, 2113,  557,  558, 2116
1481, 2290, 3259, 3262, 2291,  203, 2114, 2117,  204
1482, 3259, 3260, 3263, 3262, 2114, 2115, 2118, 2117
1483, 3260, 3261, 3264, 3263, 2115, 2116, 2119, 2118
1484, 3261, 2329, 2330, 3264, 2116,  558,  559, 2119
1485, 2291, 3262, 3265, 2292,  204, 2117, 2120,  205
1486, 3262, 3263, 3266, 3265, 2117, 2118, 2121, 2120
1487, 3263, 3264, 3267, 3266, 2118, 2119, 2122, 2121
1488, 3264, 2330, 2331, 3267, 2119,  559,  560, 2122
1489, 2292, 3265, 3268, 2293,  205, 2120, 2123,  206
1490, 3265, 3266, 3269, 3268, 2120, 2121, 2124, 2123
1491, 3266, 3267, 3270, 3269, 2121, 2122, 2125, 2124
1492, 3267, 2331, 2332, 3270, 2122,  560,  561, 2125
1493, 2293, 3268, 3271, 2294,  206, 2123, 2126,  207
1494, 3268, 3269, 3272, 3271, 2123, 2124, 2127, 2126
1495, 3269, 3270, 3273, 3272, 2124, 2125, 2128, 2127
1496, 3270, 2332, 2333, 3273, 2125,  561,  562, 2128
1497, 2294, 3271, 3274, 2295,  207, 2126, 2129,  208
1498, 3271, 3272, 3275, 3274, 2126, 2127, 2130, 2129
1499, 3272, 3273, 3276, 3275, 2127, 2128, 2131, 2130
1500, 3273, 2333, 2334, 3276, 2128,  562,  563, 2131
1501, 2295, 3274, 3277, 2296,  208, 2129, 2132,  209
1502, 3274, 3275, 3278, 3277, 2129, 2130, 2133, 2132
1503, 3275, 3276, 3279, 3278, 2130, 2131, 2134, 2133
1504, 3276, 2334, 2335, 3279, 2131,  563,  564, 2134
1505, 2296, 3277, 3280, 2297,  209, 2132, 2135,  210
1506, 3277, 3278, 3281, 3280, 2132, 2133, 2136, 2135
1507, 3278, 3279, 3282, 3281, 2133, 2134, 2137, 2136
1508, 3279, 2335, 2336, 3282, 2134,  564,  565, 2137
1509, 2297, 3280, 3283, 2298,  210, 2135, 2138,  211
1510, 3280, 3281, 3284, 3283, 2135, 2136, 2139, 2138
1511, 3281, 3282, 3285, 3284, 2136, 2137, 2140, 2139
1512, 3282, 2336, 2337, 3285, 2137,  565,  566, 2140
1513, 2298, 3283, 3286, 2299,  211, 2138, 2141,  212
1514, 3283, 3284, 3287, 3286, 2138, 2139, 2142, 2141
1515, 3284, 3285, 3288, 3287, 2139, 2140, 2143, 2142
1516, 3285, 2337, 2338, 3288, 2140,  566,  567, 2143
1517, 2299, 3286, 2342,  655,  212, 2141,  570,    7
1518, 3286, 3287, 2343, 2342, 2141, 2142,  569,  570
1519, 3287, 3288, 2344, 2343, 2142, 2143,  568,  569
1520, 3288, 2338,  657, 2344, 2143,  567,   24,  568
1521,   28,  573, 2144,  616,  656, 2339, 3172, 2261
1522,  573,  572, 2145, 2144, 2339, 2340, 3173, 3172
1523,  572,  571, 2146, 2145, 2340, 2341, 3174, 3173
1524,  571,   25,  612, 2146, 2341,  658, 2300, 3174
1525,  616, 2144, 2147,  617, 2261, 3172, 3175, 2262
1526, 2144, 2145, 2148, 2147, 3172, 3173, 3176, 3175
1527, 2145, 2146, 2149, 2148, 3173, 3174, 3177, 3176
1528, 2146,  612,  611, 2149, 3174, 2300, 2301, 3177
1529,  617, 2147, 2150,  618, 2262, 3175, 3178, 2263
1530, 2147, 2148, 2151, 2150, 3175, 3176, 3179, 3178
1531, 2148, 2149, 2152, 2151, 3176, 3177, 3180, 3179
1532, 2149,  611,  610, 2152, 3177, 2301, 2302, 3180
1533,  618, 2150, 2153,  619, 2263, 3178, 3181, 2264
1534, 2150, 2151, 2154, 2153, 3178, 3179, 3182, 3181
1535, 2151, 2152, 2155, 2154, 3179, 3180, 3183, 3182
1536, 2152,  610,  609, 2155, 3180, 2302, 2303, 3183
1537,  619, 2153, 2156,  620, 2264, 3181, 3184, 2265
1538, 2153, 2154, 2157, 2156, 3181, 3182, 3185, 3184
1539, 2154, 2155, 2158, 2157, 3182, 3183, 3186, 3185
1540, 2155,  609,  608, 2158, 3183, 2303, 2304, 3186
1541,  620, 2156, 2159,  621, 2265, 3184, 3187, 2266
1542, 2156, 2157, 2160, 2159, 3184, 3185, 3188, 3187
1543, 2157, 2158, 2161, 2160, 3185, 3186, 3189, 3188
1544, 2158,  608,  607, 2161, 3186, 2304, 2305, 3189
1545,  621, 2159, 2162,  622, 2266, 3187, 3190, 2267
1546, 2159, 2160, 2163, 2162, 3187, 3188, 3191, 3190
1547, 2160, 2161, 2164, 2163, 3188, 3189, 3192, 3191
1548, 2161,  607,  606, 2164, 3189, 2305, 2306, 3192
1549,  622, 2162, 2165,  623, 2267, 3190, 3193, 2268
1550, 2162, 2163, 2166, 2165, 3190, 3191, 3194, 3193
1551, 2163, 2164, 2167, 2166, 3191, 3192, 3195, 3194
1552, 2164,  606,  605, 2167, 3192, 2306, 2307, 3195
1553,  623, 2165, 2168,  624, 2268, 3193, 3196, 2269
1554, 2165, 2166, 2169, 2168, 3193, 3194, 3197, 3196
1555, 2166, 2167, 2170, 2169, 3194, 3195, 3198, 3197
1556, 2167,  605,  604, 2170, 3195, 2307, 2308, 3198
1557,  624, 2168, 2171,  625, 2269, 3196, 3199, 2270
1558, 2168, 2169, 2172, 2171, 3196, 3197, 3200, 3199
1559, 2169, 2170, 2173, 2172, 3197, 3198, 3201, 3200
1560, 2170,  604,  603, 2173, 3198, 2308, 2309, 3201
1561,  625, 2171, 2174,  626, 2270, 3199, 3202, 2271
1562, 2171, 2172, 2175, 2174, 3199, 3200, 3203, 3202
1563, 2172, 2173, 2176, 2175, 3200, 3201, 3204, 3203
1564, 2173,  603,  602, 2176, 3201, 2309, 2310, 3204
1565,  626, 2174, 2177,  627, 2271, 3202, 3205, 2272
1566, 2174, 2175, 2178, 2177, 3202, 3203, 3206, 3205
1567, 2175, 2176, 2179, 2178, 3203, 3204, 3207, 3206
1568, 2176,  602,  601, 2179, 3204, 2310, 2311, 3207
1569,  627, 2177, 2180,  628, 2272, 3205, 3208, 2273
1570, 2177, 2178, 2181, 2180, 3205, 3206, 3209, 3208
1571, 2178, 2179, 2182, 2181, 3206, 3207, 3210, 3209
1572, 2179,  601,  600, 2182, 3207, 2311, 2312, 3210
1573,  628, 2180, 2183,  629, 2273, 3208, 3211, 2274
1574, 2180, 2181, 2184, 2183, 3208, 3209, 3212, 3211
1575, 2181, 2182, 2185, 2184, 3209, 3210, 3213, 3212
1576, 2182,  600,  599, 2185, 3210, 2312, 2313, 3213
1577,  629, 2183, 2186,  630, 2274, 3211, 3214, 2275
1578, 2183, 2184, 2187, 2186, 3211, 3212, 3215, 3214
1579, 2184, 2185, 2188, 2187, 3212, 3213, 3216, 3215
1580, 2185,  599,  598, 2188, 3213, 2313, 2314, 3216
1581,  630, 2186, 2189,  631, 2275, 3214, 3217, 2276
1582, 2186, 2187, 2190, 2189, 3214, 3215, 3218, 3217
1583, 2187, 2188, 2191, 2190, 3215, 3216, 3219, 3218
1584, 2188,  598,  597, 2191, 3216, 2314, 2315, 3219
1585,  631, 2189, 2192,  632, 2276, 3217, 3220, 2277
1586, 2189, 2190, 2193, 2192, 3217, 3218, 3221, 3220
1587, 2190, 2191, 2194, 2193, 3218, 3219, 3222, 3221
1588, 2191,  597,  596, 2194, 3219, 2315, 2316, 3222
1589,  632, 2192, 2195,  633, 2277, 3220, 3223, 2278
1590, 2192, 2193, 2196, 2195, 3220, 3221, 3224, 3223
1591, 2193, 2194, 2197, 2196, 3221, 3222, 3225, 3224
1592, 2194,  596,  595, 2197, 3222, 2316, 2317, 3225
1593,  633, 2195, 2198,  634, 2278, 3223, 3226, 2279
1594, 2195, 2196, 2199, 2198, 3223, 3224, 3227, 3226
1595, 2196, 2197, 2200, 2199, 3224, 3225, 3228, 3227
1596, 2197,  595,  594, 2200, 3225, 2317, 2318, 3228
1597,  634, 2198, 2201,  635, 2279, 3226, 3229, 2280
1598, 2198, 2199, 2202, 2201, 3226, 3227, 3230, 3229
1599, 2199, 2200, 2203, 2202, 3227, 3228, 3231, 3230
1600, 2200,  594,  593, 2203, 3228, 2318, 2319, 3231
1601,  635, 2201, 2204,  636, 2280, 3229, 3232, 2281
1602, 2201, 2202, 2205, 2204, 3229, 3230, 3233, 3232
1603, 2202, 2203, 2206, 2205, 3230, 3231, 3234, 3233
1604, 2203,  593,  592, 2206, 3231, 2319, 2320, 3234
1605,  636, 2204, 2207,  637, 2281, 3232, 3235, 2282
1606, 2204, 2205, 2208, 2207, 3232, 3233, 3236, 3235
1607, 2205, 2206, 2209, 2208, 3233, 3234, 3237, 3236
1608, 2206,  592,  591, 2209, 3234, 2320, 2321, 3237
1609,  637, 2207, 2210,  638, 2282, 3235, 3238, 2283
1610, 2207, 2208, 2211, 2210, 3235, 3236, 3239, 3238
1611, 2208, 2209, 2212, 2211, 3236, 3237, 3240, 3239
1612, 2209,  591,  590, 2212, 3237, 2321, 2322, 3240
1613,  638, 2210, 2213,  639, 2283, 3238, 3241, 2284
1614, 2210, 2211, 2214, 2213, 3238, 3239, 3242, 3241
1615, 2211, 2212, 2215, 2214, 3239, 3240, 3243, 3242
1616, 2212,  590,  589, 2215, 3240, 2322, 2323, 3243
1617,  639, 2213, 2216,  640, 2284, 3241, 3244, 2285
1618, 2213, 2214, 2217, 2216, 3241, 3242, 3245, 3244
1619, 2214, 2215, 2218, 2217, 3242, 3243, 3246, 3245
1620, 2215,  589,  588, 2218, 3243, 2323, 2324, 3246
1621,  640, 2216, 2219,  641, 2285, 3244, 3247, 2286
1622, 2216, 2217, 2220, 2219, 3244, 3245, 3248, 3247
1623, 2217, 2218, 2221, 2220, 3245, 3246, 3249, 3248
1624, 2218,  588,  587, 2221, 3246, 2324, 2325, 3249
1625,  641, 2219, 2222,  642, 2286, 3247, 3250, 2287
1626, 2219, 2220, 2223, 2222, 3247, 3248, 3251, 3250
1627, 2220, 2221, 2224, 2223, 3248, 3249, 3252, 3251
1628, 2221,  587,  586, 2224, 3249, 2325, 2326, 3252
1629,  642, 2222, 2225,  643, 2287, 3250, 3253, 2288
1630, 2222, 2223, 2226, 2225, 3250, 3251, 3254, 3253
1631, 2223, 2224, 2227, 2226, 3251, 3252, 3255, 3254
1632, 2224,  586,  585, 2227, 3252, 2326, 2327, 3255
1633,  643, 2225, 2228,  644, 2288, 3253, 3256, 2289
1634, 2225, 2226, 2229, 2228, 3253, 3254, 3257, 3256
1635, 2226, 2227, 2230, 2229, 3254, 3255, 3258, 3257
1636, 2227,  585,  584, 2230, 3255, 2327, 2328, 3258
1637,  644, 2228, 2231,  645, 2289, 3256, 3259, 2290
1638, 2228, 2229, 2232, 2231, 3256, 3257, 3260, 3259
1639, 2229, 2230, 2233, 2232, 3257, 3258, 3261, 3260
1640, 2230,  584,  583, 2233, 3258, 2328, 2329, 3261
1641,  645, 2231, 2234,  646, 2290, 3259, 3262, 2291
1642, 2231, 2232, 2235, 2234, 3259, 3260, 3263, 3262
1643, 2232, 2233, 2236, 2235, 3260, 3261, 3264, 3263
1644, 2233,  583,  582, 2236, 3261, 2329, 2330, 3264
1645,  646, 2234, 2237,  647, 2291, 3262, 3265, 2292
1646, 2234, 2235, 2238, 2237, 3262, 3263, 3266, 3265
1647, 2235, 2236, 2239, 2238, 3263, 3264, 3267, 3266
1648, 2236,  582,  581, 2239, 3264, 2330, 2331, 3267
1649,  647, 2237, 2240,  648, 2292, 3265, 3268, 2293
1650, 2237, 2238, 2241, 2240, 3265, 3266, 3269, 3268
1651, 2238, 2239, 2242, 2241, 3266, 3267, 3270, 3269
1652, 2239,  581,  580, 2242, 3267, 2331, 2332, 3270
1653,  648, 2240, 2243,  649, 2293, 3268, 3271, 2294
1654, 2240, 2241, 2244, 2243, 3268, 3269, 3272, 3271
1655, 2241, 2242, 2245, 2244, 3269, 3270, 3273, 3272
1656, 2242,  580,  579, 2245, 3270, 2332, 2333, 3273
1657,  649, 2243, 2246,  650, 2294, 3271, 3274, 2295
1658, 2243, 2244, 2247, 2246, 3271, 3272, 3275, 3274
1659, 2244, 2245, 2248, 2247, 3272, 3273, 3276, 3275
1660, 2245,  579,  578, 2248, 3273, 2333, 2334, 3276
1661,  650, 2246, 2249,  651, 2295, 3274, 3277, 2296
1662, 2246, 2247, 2250, 2249, 3274, 3275, 3278, 3277
1663, 2247, 2248, 2251, 2250, 3275, 3276, 3279, 3278
1664, 2248,  578,  577, 2251, 3276, 2334, 2335, 3279
1665,  651, 2249, 2252,  652, 2296, 3277, 3280, 2297
1666, 2249, 2250, 2253, 2252, 3277, 3278, 3281, 3280
1667, 2250, 2251, 2254, 2253, 3278, 3279, 3282, 3281
1668, 2251,  577,  576, 2254, 3279, 2335, 2336, 3282
1669,  652, 2252, 2255,  653, 2297, 3280, 3283, 2298
1670, 2252, 2253, 2256, 2255, 3280, 3281, 3284, 3283
1671, 2253, 2254, 2257, 2256, 3281, 3282, 3285, 3284
1672, 2254,  576,  575, 2257, 3282, 2336, 2337, 3285
1673,  653, 2255, 2258,  654, 2298, 3283, 3286, 2299
1674, 2255, 2256, 2259, 2258, 3283, 3284, 3287, 3286
1675, 2256, 2257, 2260, 2259, 3284, 3285, 3288, 3287
1676, 2257,  575,  574, 2260, 3285, 2337, 2338, 3288
1677,  654, 2258,  613,   27, 2299, 3286, 2342,  655
1678, 2258, 2259,  614,  613, 3286, 3287, 2343, 2342
1679, 2259, 2260,  615,  614, 3287, 3288, 2344, 2343
1680, 2260,  574,   26,  615, 3288, 2338,  657, 2344
1681,  750, 2618, 3289, 2579,   29,  659, 2345,  703
1682, 2618, 2619, 3290, 3289,  659,  660, 2346, 2345
1683, 2619, 2620, 3291, 3290,  660,  661, 2347, 2346
1684, 2620,  258, 1388, 3291,  661,    5,  167, 2347
1685, 2579, 3289, 3292, 2580,  703, 2345, 2348,  702
1686, 3289, 3290, 3293, 3292, 2345, 2346, 2349, 2348
1687, 3290, 3291, 3294, 3293, 2346, 2347, 2350, 2349
1688, 3291, 1388, 1387, 3294, 2347,  167,  166, 2350
1689, 2580, 3292, 3295, 2581,  702, 2348, 2351,  701
1690, 3292, 3293, 3296, 3295, 2348, 2349, 2352, 2351
1691, 3293, 3294, 3297, 3296, 2349, 2350, 2353, 2352
1692, 3294, 1387, 1386, 3297, 2350,  166,  165, 2353
1693, 2581, 3295, 3298, 2582,  701, 2351, 2354,  700
1694, 3295, 3296, 3299, 3298, 2351, 2352, 2355, 2354
1695, 3296, 3297, 3300, 3299, 2352, 2353, 2356, 2355
1696, 3297, 1386, 1385, 3300, 2353,  165,  164, 2356
1697, 2582, 3298, 3301, 2583,  700, 2354, 2357,  699
1698, 3298, 3299, 3302, 3301, 2354, 2355, 2358, 2357
1699, 3299, 3300, 3303, 3302, 2355, 2356, 2359, 2358
1700, 3300, 1385, 1384, 3303, 2356,  164,  163, 2359
1701, 2583, 3301, 3304, 2584,  699, 2357, 2360,  698
1702, 3301, 3302, 3305, 3304, 2357, 2358, 2361, 2360
1703, 3302, 3303, 3306, 3305, 2358, 2359, 2362, 2361
1704, 3303, 1384, 1383, 3306, 2359,  163,  162, 2362
1705, 2584, 3304, 3307, 2585,  698, 2360, 2363,  697
1706, 3304, 3305, 3308, 3307, 2360, 2361, 2364, 2363
1707, 3305, 3306, 3309, 3308, 2361, 2362, 2365, 2364
1708, 3306, 1383, 1382, 3309, 2362,  162,  161, 2365
1709, 2585, 3307, 3310, 2586,  697, 2363, 2366,  696
1710, 3307, 3308, 3311, 3310, 2363, 2364, 2367, 2366
1711, 3308, 3309, 3312, 3311, 2364, 2365, 2368, 2367
1712, 3309, 1382, 1381, 3312, 2365,  161,  160, 2368
1713, 2586, 3310, 3313, 2587,  696, 2366, 2369,  695
1714, 3310, 3311, 3314, 3313, 2366, 2367, 2370, 2369
1715, 3311, 3312, 3315, 3314, 2367, 2368, 2371, 2370
1716, 3312, 1381, 1380, 3315, 2368,  160,  159, 2371
1717, 2587, 3313, 3316, 2588,  695, 2369, 2372,  694
1718, 3313, 3314, 3317, 3316, 2369, 2370, 2373, 2372
1719, 3314, 3315, 3318, 3317, 2370, 2371, 2374, 2373
1720, 3315, 1380, 1379, 3318, 2371,  159,  158, 2374
1721, 2588, 3316, 3319, 2589,  694, 2372, 2375,  693
1722, 3316, 3317, 3320, 3319, 2372, 2373, 2376, 2375
1723, 3317, 3318, 3321, 3320, 2373, 2374, 2377, 2376
1724, 3318, 1379, 1378, 3321, 2374,  158,  157, 2377
1725, 2589, 3319, 3322, 2590,  693, 2375, 2378,  692
1726, 3319, 3320, 3323, 3322, 2375, 2376, 2379, 2378
1727, 3320, 3321, 3324, 3323, 2376, 2377, 2380, 2379
1728, 3321, 1378, 1377, 3324, 2377,  157,  156, 2380
1729, 2590, 3322, 3325, 2591,  692, 2378, 2381,  691
1730, 3322, 3323, 3326, 3325, 2378, 2379, 2382, 2381
1731, 3323, 3324, 3327, 3326, 2379, 2380, 2383, 2382
1732, 3324, 1377, 1376, 3327, 2380,  156,  155, 2383
1733, 2591, 3325, 3328, 2592,  691, 2381, 2384,  690
1734, 3325, 3326, 3329, 3328, 2381, 2382, 2385, 2384
1735, 3326, 3327, 3330, 3329, 2382, 2383, 2386, 2385
1736, 3327, 1376, 1375, 3330, 2383,  155,  154, 2386
1737, 2592, 3328, 3331, 2593,  690, 2384, 2387,  689
1738, 3328, 3329, 3332, 3331, 2384, 2385, 2388, 2387
1739, 3329, 3330, 3333, 3332, 2385, 2386, 2389, 2388
1740, 3330, 1375, 1374, 3333, 2386,  154,  153, 2389
1741, 2593, 3331, 3334, 2594,  689, 2387, 2390,  688
1742, 3331, 3332, 3335, 3334, 2387, 2388, 2391, 2390
1743, 3332, 3333, 3336, 3335, 2388, 2389, 2392, 2391
1744, 3333, 1374, 1373, 3336, 2389,  153,  152, 2392
1745, 2594, 3334, 3337, 2595,  688, 2390, 2393,  687
1746, 3334, 3335, 3338, 3337, 2390, 2391, 2394, 2393
1747, 3335, 3336, 3339, 3338, 2391, 2392, 2395, 2394
1748, 3336, 1373, 1372, 3339, 2392,  152,  151, 2395
1749, 2595, 3337, 3340, 2596,  687, 2393, 2396,  686
1750, 3337, 3338, 3341, 3340, 2393, 2394, 2397, 2396
1751, 3338, 3339, 3342, 3341, 2394, 2395, 2398, 2397
1752, 3339, 1372, 1371, 3342, 2395,  151,  150, 2398
1753, 2596, 3340, 3343, 2597,  686, 2396, 2399,  685
1754, 3340, 3341, 3344, 3343, 2396, 2397, 2400, 2399
1755, 3341, 3342, 3345, 3344, 2397, 2398, 2401, 2400
1756, 3342, 1371, 1370, 3345, 2398,  150,  149, 2401
1757, 2597, 3343, 3346, 2598,  685, 2399, 2402,  684
1758, 3343, 3344, 3347, 3346, 2399, 2400, 2403, 2402
1759, 3344, 3345, 3348, 3347, 2400, 2401, 2404, 2403
1760, 3345, 1370, 1369, 3348, 2401,  149,  148, 2404
1761, 2598, 3346, 3349, 2599,  684, 2402, 2405,  683
1762, 3346, 3347, 3350, 3349, 2402, 2403, 2406, 2405
1763, 3347, 3348, 3351, 3350, 2403, 2404, 2407, 2406
1764, 3348, 1369, 1368, 3351, 2404,  148,  147, 2407
1765, 2599, 3349, 3352, 2600,  683, 2405, 2408,  682
1766, 3349, 3350, 3353, 3352, 2405, 2406, 2409, 2408
1767, 3350, 3351, 3354, 3353, 2406, 2407, 2410, 2409
1768, 3351, 1368, 1367, 3354, 2407,  147,  146, 2410
1769, 2600, 3352, 3355, 2601,  682, 2408, 2411,  681
1770, 3352, 3353, 3356, 3355, 2408, 2409, 2412, 2411
1771, 3353, 3354, 3357, 3356, 2409, 2410, 2413, 2412
1772, 3354, 1367, 1366, 3357, 2410,  146,  145, 2413
1773, 2601, 3355, 3358, 2602,  681, 2411, 2414,  680
1774, 3355, 3356, 3359, 3358, 2411, 2412, 2415, 2414
1775, 3356, 3357, 3360, 3359, 2412, 2413, 2416, 2415
1776, 3357, 1366, 1365, 3360, 2413,  145,  144, 2416
1777, 2602, 3358, 3361, 2603,  680, 2414, 2417,  679
1778, 3358, 3359, 3362, 3361, 2414, 2415, 2418, 2417
1779, 3359, 3360, 3363, 3362, 2415, 2416, 2419, 2418
1780, 3360, 1365, 1364, 3363, 2416,  144,  143, 2419
1781, 2603, 3361, 3364, 2604,  679, 2417, 2420,  678
1782, 3361, 3362, 3365, 3364, 2417, 2418, 2421, 2420
1783, 3362, 3363, 3366, 3365, 2418, 2419, 2422, 2421
1784, 3363, 1364, 1363, 3366, 2419,  143,  142, 2422
1785, 2604, 3364, 3367, 2605,  678, 2420, 2423,  677
1786, 3364, 3365, 3368, 3367, 2420, 2421, 2424, 2423
1787, 3365, 3366, 3369, 3368, 2421, 2422, 2425, 2424
1788, 3366, 1363, 1362, 3369, 2422,  142,  141, 2425
1789, 2605, 3367, 3370, 2606,  677, 2423, 2426,  676
1790, 3367, 3368, 3371, 3370, 2423, 2424, 2427, 2426
1791, 3368, 3369, 3372, 3371, 2424, 2425, 2428, 2427
1792, 3369, 1362, 1361, 3372, 2425,  141,  140, 2428
1793, 2606, 3370, 3373, 2607,  676, 2426, 2429,  675
1794, 3370, 3371, 3374, 3373, 2426, 2427, 2430, 2429
1795, 3371, 3372, 3375, 3374, 2427, 2428, 2431, 2430
1796, 3372, 1361, 1360, 3375, 2428,  140,  139, 2431
1797, 2607, 3373, 3376, 2608,  675, 2429, 2432,  674
1798, 3373, 3374, 3377, 3376, 2429, 2430, 2433, 2432
1799, 3374, 3375, 3378, 3377, 2430, 2431, 2434, 2433
1800, 3375, 1360, 1359, 3378, 2431,  139,  138, 2434
1801, 2608, 3376, 3379, 2609,  674, 2432, 2435,  673
1802, 3376, 3377, 3380, 3379, 2432, 2433, 2436, 2435
1803, 3377, 3378, 3381, 3380, 2433, 2434, 2437, 2436
1804, 3378, 1359, 1358, 3381, 2434,  138,  137, 2437
1805, 2609, 3379, 3382, 2610,  673, 2435, 2438,  672
1806, 3379, 3380, 3383, 3382, 2435, 2436, 2439, 2438
1807, 3380, 3381, 3384, 3383, 2436, 2437, 2440, 2439
1808, 3381, 1358, 1357, 3384, 2437,  137,  136, 2440
1809, 2610, 3382, 3385, 2611,  672, 2438, 2441,  671
1810, 3382, 3383, 3386, 3385, 2438, 2439, 2442, 2441
1811, 3383, 3384, 3387, 3386, 2439, 2440, 2443, 2442
1812, 3384, 1357, 1356, 3387, 2440,  136,  135, 2443
1813, 2611, 3385, 3388, 2612,  671, 2441, 2444,  670
1814, 3385, 3386, 3389, 3388, 2441, 2442, 2445, 2444
1815, 3386, 3387, 3390, 3389, 2442, 2443, 2446, 2445
1816, 3387, 1356, 1355, 3390, 2443,  135,  134, 2446
1817, 2612, 3388, 3391, 2613,  670, 2444, 2447,  669
1818, 3388, 3389, 3392, 3391, 2444, 2445, 2448, 2447
1819, 3389, 3390, 3393, 3392, 2445, 2446, 2449, 2448
1820, 3390, 1355, 1354, 3393, 2446,  134,  133, 2449
1821, 2613, 3391, 3394, 2614,  669, 2447, 2450,  668
1822, 3391, 3392, 3395, 3394, 2447, 2448, 2451, 2450
1823, 3392, 3393, 3396, 3395, 2448, 2449, 2452, 2451
1824, 3393, 1354, 1353, 3396, 2449,  133,  132, 2452
1825, 2614, 3394, 3397, 2615,  668, 2450, 2453,  667
1826, 3394, 3395, 3398, 3397, 2450, 2451, 2454, 2453
1827, 3395, 3396, 3399, 3398, 2451, 2452, 2455, 2454
1828, 3396, 1353, 1352, 3399, 2452,  132,  131, 2455
1829, 2615, 3397, 3400, 2616,  667, 2453, 2456,  666
1830, 3397, 3398, 3401, 3400, 2453, 2454, 2457, 2456
1831, 3398, 3399, 3402, 3401, 2454, 2455, 2458, 2457
1832, 3399, 1352, 1351, 3402, 2455,  131,  130, 2458
1833, 2616, 3400, 3403, 2617,  666, 2456, 2459,  665
1834, 3400, 3401, 3404, 3403, 2456, 2457, 2460, 2459
1835, 3401, 3402, 3405, 3404, 2457, 2458, 2461, 2460
1836, 3402, 1351, 1350, 3405, 2458,  130,  129, 2461
1837, 2617, 3403, 2621,  749,  665, 2459,  664,   30
1838, 3403, 3404, 2622, 2621, 2459, 2460,  663,  664
1839, 3404, 3405, 2623, 2622, 2460, 2461,  662,  663
1840, 3405, 1350,  298, 2623, 2461,  129,    6,  662
1841,   32,  706, 2462,  710,  750, 2618, 3289, 2579
1842,  706,  705, 2463, 2462, 2618, 2619, 3290, 3289
1843,  705,  704, 2464, 2463, 2619, 2620, 3291, 3290
1844,  704,   11,  297, 2464, 2620,  258, 1388, 3291
1845,  710, 2462, 2465,  711, 2579, 3289, 3292, 2580
1846, 2462, 2463, 2466, 2465, 3289, 3290, 3293, 3292
1847, 2463, 2464, 2467, 2466, 3290, 3291, 3294, 3293
1848, 2464,  297,  296, 2467, 3291, 1388, 1387, 3294
1849,  711, 2465, 2468,  712, 2580, 3292, 3295, 2581
1850, 2465, 2466, 2469, 2468, 3292, 3293, 3296, 3295
1851, 2466, 2467, 2470, 2469, 3293, 3294, 3297, 3296
1852, 2467,  296,  295, 2470, 3294, 1387, 1386, 3297
1853,  712, 2468, 2471,  713, 2581, 3295, 3298, 2582
1854, 2468, 2469, 2472, 2471, 3295, 3296, 3299, 3298
1855, 2469, 2470, 2473, 2472, 3296, 3297, 3300, 3299
1856, 2470,  295,  294, 2473, 3297, 1386, 1385, 3300
1857,  713, 2471, 2474,  714, 2582, 3298, 3301, 2583
1858, 2471, 2472, 2475, 2474, 3298, 3299, 3302, 3301
1859, 2472, 2473, 2476, 2475, 3299, 3300, 3303, 3302
1860, 2473,  294,  293, 2476, 3300, 1385, 1384, 3303
1861,  714, 2474, 2477,  715, 2583, 3301, 3304, 2584
1862, 2474, 2475, 2478, 2477, 3301, 3302, 3305, 3304
1863, 2475, 2476, 2479, 2478, 3302, 3303, 3306, 3305
1864, 2476,  293,  292, 2479, 3303, 1384, 1383, 3306
1865,  715, 2477, 2480,  716, 2584, 3304, 3307, 2585
1866, 2477, 2478, 2481, 2480, 3304, 3305, 3308, 3307
1867, 2478, 2479, 2482, 2481, 3305, 3306, 3309, 3308
1868, 2479,  292,  291, 2482, 3306, 1383, 1382, 3309
1869,  716, 2480, 2483,  717, 2585, 3307, 3310, 2586
1870, 2480, 2481, 2484, 2483, 3307, 3308, 3311, 3310
1871, 2481, 2482, 2485, 2484, 3308, 3309, 3312, 3311
1872, 2482,  291,  290, 2485, 3309, 1382, 1381, 3312
1873,  717, 2483, 2486,  718, 2586, 3310, 3313, 2587
1874, 2483, 2484, 2487, 2486, 3310, 3311, 3314, 3313
1875, 2484, 2485, 2488, 2487, 3311, 3312, 3315, 3314
1876, 2485,  290,  289, 2488, 3312, 1381, 1380, 3315
1877,  718, 2486, 2489,  719, 2587, 3313, 3316, 2588
1878, 2486, 2487, 2490, 2489, 3313, 3314, 3317, 3316
1879, 2487, 2488, 2491, 2490, 3314, 3315, 3318, 3317
1880, 2488,  289,  288, 2491, 3315, 1380, 1379, 3318
1881,  719, 2489, 2492,  720, 2588, 3316, 3319, 2589
1882, 2489, 2490, 2493, 2492, 3316, 3317, 3320, 3319
1883, 2490, 2491, 2494, 2493, 3317, 3318, 3321, 3320
1884, 2491,  288,  287, 2494, 3318, 1379, 1378, 3321
1885,  720, 2492, 2495,  721, 2589, 3319, 3322, 2590
1886, 2492, 2493, 2496, 2495, 3319, 3320, 3323, 3322
1887, 2493, 2494, 2497, 2496, 3320, 3321, 3324, 3323
1888, 2494,  287,  286, 2497, 3321, 1378, 1377, 3324
1889,  721, 2495, 2498,  722, 2590, 3322, 3325, 2591
1890, 2495, 2496, 2499, 2498, 3322, 3323, 3326, 3325
1891, 2496, 2497, 2500, 2499, 3323, 3324, 3327, 3326
1892, 2497,  286,  285, 2500, 3324, 1377, 1376, 3327
1893,  722, 2498, 2501,  723, 2591, 3325, 3328, 2592
1894, 2498, 2499, 2502, 2501, 3325, 3326, 3329, 3328
1895, 2499, 2500, 2503, 2502, 3326, 3327, 3330, 3329
1896, 2500,  285,  284, 2503, 3327, 1376, 1375, 3330
1897,  723, 2501, 2504,  724, 2592, 3328, 3331, 2593
1898, 2501, 2502, 2505, 2504, 3328, 3329, 3332, 3331
1899, 2502, 2503, 2506, 2505, 3329, 3330, 3333, 3332
1900, 2503,  284,  283, 2506, 3330, 1375, 1374, 3333
1901,  724, 2504, 2507,  725, 2593, 3331, 3334, 2594
1902, 2504, 2505, 2508, 2507, 3331, 3332, 3335, 3334
1903, 2505, 2506, 2509, 2508, 3332, 3333, 3336, 3335
1904, 2506,  283,  282, 2509, 3333, 1374, 1373, 3336
1905,  725, 2507, 2510,  726, 2594, 3334, 3337, 2595
1906, 2507, 2508, 2511, 2510, 3334, 3335, 3338, 3337
1907, 2508, 2509, 2512, 2511, 3335, 3336, 3339, 3338
1908, 2509,  282,  281, 2512, 3336, 1373, 1372, 3339
1909,  726, 2510, 2513,  727, 2595, 3337, 3340, 2596
1910, 2510, 2511, 2514, 2513, 3337, 3338, 3341, 3340
1911, 2511, 2512, 2515, 2514, 3338, 3339, 3342, 3341
1912, 2512,  281,  280, 2515, 3339, 1372, 1371, 3342
1913,  727, 2513, 2516,  728, 2596, 3340, 3343, 2597
1914, 2513, 2514, 2517, 2516, 3340, 3341, 3344, 3343
1915, 2514, 2515, 2518, 2517, 3341, 3342, 3345, 3344
1916, 2515,  280,  279, 2518, 3342, 1371, 1370, 3345
1917,  728, 2516, 2519,  729, 2597, 3343, 3346, 2598
1918, 2516, 2517, 2520, 2519, 3343, 3344, 3347, 3346
1919, 2517, 2518, 2521, 2520, 3344, 3345, 3348, 3347
1920, 2518,  279,  278, 2521, 3345, 1370, 1369, 3348
1921,  729, 2519, 2522,  730, 2598, 3346, 3349, 2599
1922, 2519, 2520, 2523, 2522, 3346, 3347, 3350, 3349
1923, 2520, 2521, 2524, 2523, 3347, 3348, 3351, 3350
1924, 2521,  278,  277, 2524, 3348, 1369, 1368, 3351
1925,  730, 2522, 2525,  731, 2599, 3349, 3352, 2600
1926, 2522, 2523, 2526, 2525, 3349, 3350, 3353, 3352
1927, 2523, 2524, 2527, 2526, 3350, 3351, 3354, 3353
1928, 2524,  277,  276, 2527, 3351, 1368, 1367, 3354
1929,  731, 2525, 2528,  732, 2600, 3352, 3355, 2601
1930, 2525, 2526, 2529, 2528, 3352, 3353, 3356, 3355
1931, 2526, 2527, 2530, 2529, 3353, 3354, 3357, 3356
1932, 2527,  276,  275, 2530, 3354, 1367, 1366, 3357
1933,  732, 2528, 2531,  733, 2601, 3355, 3358, 2602
1934, 2528, 2529, 2532, 2531, 3355, 3356, 3359, 3358
1935, 2529, 2530, 2533, 2532, 3356, 3357, 3360, 3359
1936, 2530,  275,  274, 2533, 3357, 1366, 1365, 3360
1937,  733, 2531, 2534,  734, 2602, 3358, 3361, 2603
1938, 2531, 2532, 2535, 2534, 3358, 3359, 3362, 3361
1939, 2532, 2533, 2536, 2535, 3359, 3360, 3363, 3362
1940, 2533,  274,  273, 2536, 3360, 1365, 1364, 3363
1941,  734, 2534, 2537,  735, 2603, 3361, 3364, 2604
1942, 2534, 2535, 2538, 2537, 3361, 3362, 3365, 3364
1943, 2535, 2536, 2539, 2538, 3362, 3363, 3366, 3365
1944, 2536,  273,  272, 2539, 3363, 1364, 1363, 3366
1945,  735, 2537, 2540,  736, 2604, 3364, 3367, 2605
1946, 2537, 2538, 2541, 2540, 3364, 3365, 3368, 3367
1947, 2538, 2539, 2542, 2541, 3365, 3366, 3369, 3368
1948, 2539,  272,  271, 2542, 3366, 1363, 1362, 3369
1949,  736, 2540, 2543,  737, 2605, 3367, 3370, 2606
1950, 2540, 2541, 2544, 2543, 3367, 3368, 3371, 3370
1951, 2541, 2542, 2545, 2544, 3368, 3369, 3372, 3371
1952, 2542,  271,  270, 2545, 3369, 1362, 1361, 3372
1953,  737, 2543, 2546,  738, 2606, 3370, 3373, 2607
1954, 2543, 2544, 2547, 2546, 3370, 3371, 3374, 3373
1955, 2544, 2545, 2548, 2547, 3371, 3372, 3375, 3374
1956, 2545,  270,  269, 2548, 3372, 1361, 1360, 3375
1957,  738, 2546, 2549,  739, 2607, 3373, 3376, 2608
1958, 2546, 2547, 2550, 2549, 3373, 3374, 3377, 3376
1959, 2547, 2548, 2551, 2550, 3374, 3375, 3378, 3377
1960, 2548,  269,  268, 2551, 3375, 1360, 1359, 3378
1961,  739, 2549, 2552,  740, 2608, 3376, 3379, 2609
1962, 2549, 2550, 2553, 2552, 3376, 3377, 3380, 3379
1963, 2550, 2551, 2554, 2553, 3377, 3378, 3381, 3380
1964, 2551,  268,  267, 2554, 3378, 1359, 1358, 3381
1965,  740, 2552, 2555,  741, 2609, 3379, 3382, 2610
1966, 2552, 2553, 2556, 2555, 3379, 3380, 3383, 3382
1967, 2553, 2554, 2557, 2556, 3380, 3381, 3384, 3383
1968, 2554,  267,  266, 2557, 3381, 1358, 1357, 3384
1969,  741, 2555, 2558,  742, 2610, 3382, 3385, 2611
1970, 2555, 2556, 2559, 2558, 3382, 3383, 3386, 3385
1971, 2556, 2557, 2560, 2559, 3383, 3384, 3387, 3386
1972, 2557,  266,  265, 2560, 3384, 1357, 1356, 3387
1973,  742, 2558, 2561,  743, 2611, 3385, 3388, 2612
1974, 2558, 2559, 2562, 2561, 3385, 3386, 3389, 3388
1975, 2559, 2560, 2563, 2562, 3386, 3387, 3390, 3389
1976, 2560,  265,  264, 2563, 3387, 1356, 1355, 3390
1977,  743, 2561, 2564,  744, 2612, 3388, 3391, 2613
1978, 2561, 2562, 2565, 2564, 3388, 3389, 3392, 3391
1979, 2562, 2563, 2566, 2565, 3389, 3390, 3393, 3392
1980, 2563,  264,  263, 2566, 3390, 1355, 1354, 3393
1981,  744, 2564, 2567,  745, 2613, 3391, 3394, 2614
1982, 2564, 2565, 2568, 2567, 3391, 3392, 3395, 3394
1983, 2565, 2566, 2569, 2568, 3392, 3393, 3396, 3395
1984, 2566,  263,  262, 2569, 3393, 1354, 1353, 3396
1985,  745, 2567, 2570,  746, 2614, 3394, 3397, 2615
1986, 2567, 2568, 2571, 2570, 3394, 3395, 3398, 3397
1987, 2568, 2569, 2572, 2571, 3395, 3396, 3399, 3398
1988, 2569,  262,  261, 2572, 3396, 1353, 1352, 3399
1989,  746, 2570, 2573,  747, 2615, 3397, 3400, 2616
1990, 2570, 2571, 2574, 2573, 3397, 3398, 3401, 3400
1991, 2571, 2572, 2575, 2574, 3398, 3399, 3402, 3401
1992, 2572,  261,  260, 2575, 3399, 1352, 1351, 3402
1993,  747, 2573, 2576,  748, 2616, 3400, 3403, 2617
1994, 2573, 2574, 2577, 2576, 3400, 3401, 3404, 3403
1995, 2574, 2575, 2578, 2577, 3401, 3402, 3405, 3404
1996, 2575,  260,  259, 2578, 3402, 1351, 1350, 3405
1997,  748, 2576,  707,   31, 2617, 3403, 2621,  749
1998, 2576, 2577,  708,  707, 3403, 3404, 2622, 2621
1999, 2577, 2578,  709,  708, 3404, 3405, 2623, 2622
2000, 2578,  259,   12,  709, 3405, 1350,  298, 2623
2001,  525, 1987, 3406, 2663,   18,  431, 2624,  752
2002, 1987, 1986, 3407, 3406,  431,  430, 2625, 2624
2003, 1986, 1985, 3408, 3407,  430,  429, 2626, 2625
2004, 1985, 1984, 3409, 3408,  429,  428, 2627, 2626
2005, 1984, 1983, 3410, 3409,  428,  427, 2628, 2627
2006, 1983, 1982, 3411, 3410,  427,  426, 2629, 2628
2007, 1982, 1981, 3412, 3411,  426,  425, 2630, 2629
2008, 1981, 1980, 3413, 3412,  425,  424, 2631, 2630
2009, 1980, 1979, 3414, 3413,  424,  423, 2632, 2631
2010, 1979, 1978, 3415, 3414,  423,  422, 2633, 2632
2011, 1978, 1977, 3416, 3415,  422,  421, 2634, 2633
2012, 1977, 1976, 3417, 3416,  421,  420, 2635, 2634
2013, 1976, 1975, 3418, 3417,  420,  419, 2636, 2635
2014, 1975, 1974, 3419, 3418,  419,  418, 2637, 2636
2015, 1974, 1973, 3420, 3419,  418,  417, 2638, 2637
2016, 1973, 1972, 3421, 3420,  417,  416, 2639, 2638
2017, 1972, 1971, 3422, 3421,  416,  415, 2640, 2639
2018, 1971, 1970, 3423, 3422,  415,  414, 2641, 2640
2019, 1970, 1969, 3424, 3423,  414,  413, 2642, 2641
2020, 1969, 1968, 3425, 3424,  413,  412, 2643, 2642
2021, 1968, 1967, 3426, 3425,  412,  411, 2644, 2643
2022, 1967, 1966, 3427, 3426,  411,  410, 2645, 2644
2023, 1966, 1965, 3428, 3427,  410,  409, 2646, 2645
2024, 1965, 1964, 3429, 3428,  409,  408, 2647, 2646
2025, 1964, 1963, 3430, 3429,  408,  407, 2648, 2647
2026, 1963, 1962, 3431, 3430,  407,  406, 2649, 2648
2027, 1962, 1961, 3432, 3431,  406,  405, 2650, 2649
2028, 1961, 1960, 3433, 3432,  405,  404, 2651, 2650
2029, 1960, 1959, 3434, 3433,  404,  403, 2652, 2651
2030, 1959, 1958, 3435, 3434,  403,  402, 2653, 2652
2031, 1958, 1957, 3436, 3435,  402,  401, 2654, 2653
2032, 1957, 1956, 3437, 3436,  401,  400, 2655, 2654
2033, 1956, 1955, 3438, 3437,  400,  399, 2656, 2655
2034, 1955, 1954, 3439, 3438,  399,  398, 2657, 2656
2035, 1954, 1953, 3440, 3439,  398,  397, 2658, 2657
2036, 1953, 1952, 3441, 3440,  397,  396, 2659, 2658
2037, 1952, 1951, 3442, 3441,  396,  395, 2660, 2659
2038, 1951, 1950, 3443, 3442,  395,  394, 2661, 2660
2039, 1950, 1949, 3444, 3443,  394,  393, 2662, 2661
2040, 1949,  523, 2664, 3444,  393,   17,  751, 2662
2041, 2663, 3406, 2261,  656,  752, 2624,  616,   28
2042, 3406, 3407, 2262, 2261, 2624, 2625,  617,  616
2043, 3407, 3408, 2263, 2262, 2625, 2626,  618,  617
2044, 3408, 3409, 2264, 2263, 2626, 2627,  619,  618
2045, 3409, 3410, 2265, 2264, 2627, 2628,  620,  619
2046, 3410, 3411, 2266, 2265, 2628, 2629,  621,  620
2047, 3411, 3412, 2267, 2266, 2629, 2630,  622,  621
2048, 3412, 3413, 2268, 2267, 2630, 2631,  623,  622
2049, 3413, 3414, 2269, 2268, 2631, 2632,  624,  623
2050, 3414, 3415, 2270, 2269, 2632, 2633,  625,  624
2051, 3415, 3416, 2271, 2270, 2633, 2634,  626,  625
2052, 3416, 3417, 2272, 2271, 2634, 2635,  627,  626
2053, 3417, 3418, 2273, 2272, 2635, 2636,  628,  627
2054, 3418, 3419, 2274, 2273, 2636, 2637,  629,  628
2055, 3419, 3420, 2275, 2274, 2637, 2638,  630,  629
2056, 3420, 3421, 2276, 2275, 2638, 2639,  631,  630
2057, 3421, 3422, 2277, 2276, 2639, 2640,  632,  631
2058, 3422, 3423, 2278, 2277, 2640, 2641,  633,  632
2059, 3423, 3424, 2279, 2278, 2641, 2642,  634,  633
2060, 3424, 3425, 2280, 2279, 2642, 2643,  635,  634
2061, 3425, 3426, 2281, 2280, 2643, 2644,  636,  635
2062, 3426, 3427, 2282, 2281, 2644, 2645,  637,  636
2063, 3427, 3428, 2283, 2282, 2645, 2646,  638,  637
2064, 3428, 3429, 2284, 2283, 2646, 2647,  639,  638
2065, 3429, 3430, 2285, 2284, 2647, 2648,  640,  639
2066, 3430, 3431, 2286, 2285, 2648, 2649,  641,  640
2067, 3431, 3432, 2287, 2286, 2649, 2650,  642,  641
2068, 3432, 3433, 2288, 2287, 2650, 2651,  643,  642
2069, 3433, 3434, 2289, 2288, 2651, 2652,  644,  643
2070, 3434, 3435, 2290, 2289, 2652, 2653,  645,  644
2071, 3435, 3436, 2291, 2290, 2653, 2654,  646,  645
2072, 3436, 3437, 2292, 2291, 2654, 2655,  647,  646
2073, 3437, 3438, 2293, 2292, 2655, 2656,  648,  647
2074, 3438, 3439, 2294, 2293, 2656, 2657,  649,  648
2075, 3439, 3440, 2295, 2294, 2657, 2658,  650,  649
2076, 3440, 3441, 2296, 2295, 2658, 2659,  651,  650
2077, 3441, 3442, 2297, 2296, 2659, 2660,  652,  651
2078, 3442, 3443, 2298, 2297, 2660, 2661,  653,  652
2079, 3443, 3444, 2299, 2298, 2661, 2662,  654,  653
2080, 3444, 2664,  655, 2299, 2662,  751,   27,  654
2081,    1,  122, 1221,  214,  525, 1987, 3406, 2663
2082,  122,  121, 1222, 1221, 1987, 1986, 3407, 3406
2083,  121,  120, 1223, 1222, 1986, 1985, 3408, 3407
2084,  120,  119, 1224, 1223, 1985, 1984, 3409, 3408
2085,  119,  118, 1225, 1224, 1984, 1983, 3410, 3409
2086,  118,  117, 1226, 1225, 1983, 1982, 3411, 3410
2087,  117,  116, 1227, 1226, 1982, 1981, 3412, 3411
2088,  116,  115, 1228, 1227, 1981, 1980, 3413, 3412
2089,  115,  114, 1229, 1228, 1980, 1979, 3414, 3413
2090,  114,  113, 1230, 1229, 1979, 1978, 3415, 3414
2091,  113,  112, 1231, 1230, 1978, 1977, 3416, 3415
2092,  112,  111, 1232, 1231, 1977, 1976, 3417, 3416
2093,  111,  110, 1233, 1232, 1976, 1975, 3418, 3417
2094,  110,  109, 1234, 1233, 1975, 1974, 3419, 3418
2095,  109,  108, 1235, 1234, 1974, 1973, 3420, 3419
2096,  108,  107, 1236, 1235, 1973, 1972, 3421, 3420
2097,  107,  106, 1237, 1236, 1972, 1971, 3422, 3421
2098,  106,  105, 1238, 1237, 1971, 1970, 3423, 3422
2099,  105,  104, 1239, 1238, 1970, 1969, 3424, 3423
2100,  104,  103, 1240, 1239, 1969, 1968, 3425, 3424
2101,  103,  102, 1241, 1240, 1968, 1967, 3426, 3425
2102,  102,  101, 1242, 1241, 1967, 1966, 3427, 3426
2103,  101,  100, 1243, 1242, 1966, 1965, 3428, 3427
2104,  100,   99, 1244, 1243, 1965, 1964, 3429, 3428
2105,   99,   98, 1245, 1244, 1964, 1963, 3430, 3429
2106,   98,   97, 1246, 1245, 1963, 1962, 3431, 3430
2107,   97,   96, 1247, 1246, 1962, 1961, 3432, 3431
2108,   96,   95, 1248, 1247, 1961, 1960, 3433, 3432
2109,   95,   94, 1249, 1248, 1960, 1959, 3434, 3433
2110,   94,   93, 1250, 1249, 1959, 1958, 3435, 3434
2111,   93,   92, 1251, 1250, 1958, 1957, 3436, 3435
2112,   92,   91, 1252, 1251, 1957, 1956, 3437, 3436
2113,   91,   90, 1253, 1252, 1956, 1955, 3438, 3437
2114,   90,   89, 1254, 1253, 1955, 1954, 3439, 3438
2115,   89,   88, 1255, 1254, 1954, 1953, 3440, 3439
2116,   88,   87, 1256, 1255, 1953, 1952, 3441, 3440
2117,   87,   86, 1257, 1256, 1952, 1951, 3442, 3441
2118,   86,   85, 1258, 1257, 1951, 1950, 3443, 3442
2119,   85,   84, 1259, 1258, 1950, 1949, 3444, 3443
2120,   84,    4,  213, 1259, 1949,  523, 2664, 3444
2121,  214, 1221,  174,    8, 2663, 3406, 2261,  656
2122, 1221, 1222,  175,  174, 3406, 3407, 2262, 2261
2123, 1222, 1223,  176,  175, 3407, 3408, 2263, 2262
2124, 1223, 1224,  177,  176, 3408, 3409, 2264, 2263
2125, 1224, 1225,  178,  177, 3409, 3410, 2265, 2264
2126, 1225, 1226,  179,  178, 3410, 3411, 2266, 2265
2127, 1226, 1227,  180,  179, 3411, 3412, 2267, 2266
2128, 1227, 1228,  181,  180, 3412, 3413, 2268, 2267
2129, 1228, 1229,  182,  181, 3413, 3414, 2269, 2268
2130, 1229, 1230,  183,  182, 3414, 3415, 2270, 2269
2131, 1230, 1231,  184,  183, 3415, 3416, 2271, 2270
2132, 1231, 1232,  185,  184, 3416, 3417, 2272, 2271
2133, 1232, 1233,  186,  185, 3417, 3418, 2273, 2272
2134, 1233, 1234,  187,  186, 3418, 3419, 2274, 2273
2135, 1234, 1235,  188,  187, 3419, 3420, 2275, 2274
2136, 1235, 1236,  189,  188, 3420, 3421, 2276, 2275
2137, 1236, 1237,  190,  189, 3421, 3422, 2277, 2276
2138, 1237, 1238,  191,  190, 3422, 3423, 2278, 2277
2139, 1238, 1239,  192,  191, 3423, 3424, 2279, 2278
2140, 1239, 1240,  193,  192, 3424, 3425, 2280, 2279
2141, 1240, 1241,  194,  193, 3425, 3426, 2281, 2280
2142, 1241, 1242,  195,  194, 3426, 3427, 2282, 2281
2143, 1242, 1243,  196,  195, 3427, 3428, 2283, 2282
2144, 1243, 1244,  197,  196, 3428, 3429, 2284, 2283
2145, 1244, 1245,  198,  197, 3429, 3430, 2285, 2284
2146, 1245, 1246,  199,  198, 3430, 3431, 2286, 2285
2147, 1246, 1247,  200,  199, 3431, 3432, 2287, 2286
2148, 1247, 1248,  201,  200, 3432, 3433, 2288, 2287
2149, 1248, 1249,  202,  201, 3433, 3434, 2289, 2288
2150, 1249, 1250,  203,  202, 3434, 3435, 2290, 2289
2151, 1250, 1251,  204,  203, 3435, 3436, 2291, 2290
2152, 1251, 1252,  205,  204, 3436, 3437, 2292, 2291
2153, 1252, 1253,  206,  205, 3437, 3438, 2293, 2292
2154, 1253, 1254,  207,  206, 3438, 3439, 2294, 2293
2155, 1254, 1255,  208,  207, 3439, 3440, 2295, 2294
2156, 1255, 1256,  209,  208, 3440, 3441, 2296, 2295
2157, 1256, 1257,  210,  209, 3441, 3442, 2297, 2296
2158, 1257, 1258,  211,  210, 3442, 3443, 2298, 2297
2159, 1258, 1259,  212,  211, 3443, 3444, 2299, 2298
2160, 1259,  213,    7,  212, 3444, 2664,  655, 2299
*Nset, nset=Set-nodes, generate
    1,  3444,     1
*Elset, elset=Set-elems, generate
    1,  2160,     1
*Nset, nset=Set-fixed-nodes
    3,    4,    6,    7,   10,   12,   14,   16,   17,   20,   22,   24,   26,   27,   30,   31
   78,   79,   80,   81,   82,   83,  168,  169,  170,  171,  172,  173,  213,  215,  257,  298
  299,  343,  344,  345,  388,  389,  390,  391,  474,  475,  476,  519,  520,  521,  522,  523
  568,  569,  570,  613,  614,  615,  655,  657,  662,  663,  664,  707,  708,  709,  749,  751
 1305, 1306, 1307, 1308, 1309, 1310, 1389, 1706, 1707, 1708, 1943, 1944, 1945, 2342, 2343, 2344
 2621, 2622, 2623, 2664
*Nset, nset=Set-load1-nodes
  29,  32, 750
*Nset, nset=Set-load2-nodes
  19,  21, 524
** Section: Section-1
*Solid Section, elset=Set-elems, material=Material-1
,
*End Part
**  
**
** ASSEMBLY
**
*Assembly, name=Assembly
**  
*Instance, name=Part-1-1, part=Part-1
*End Instance
**  
*End Assembly
** 
** MATERIALS
** 
*Material, name=Material-1
*Elastic
1000., 0.3
** ----------------------------------------------------------------
** 
** STEP: Step-1
** 
*Step, name=Step-1, nlgeom=NO, inc=10
*Static, direct
0.1, 1., 
** 
** BOUNDARY CONDITIONS
** 
** Name: BC-1 Type: Displacement/Rotation
*Boundary
Part-1-1.Set-fixed-nodes, 1, 1
Part-1-1.Set-fixed-nodes, 2, 2
Part-1-1.Set-fixed-nodes, 3, 3
** 
** LOADS
** 
** Name: Load-1   Type: Concentrated force
*Cload
Part-1-1.Set-load1-nodes, 1, -10.
** Name: Load-2   Type: Concentrated force
*Cload
Part-1-1.Set-load2-nodes, 1, 10.
** 
** OUTPUT REQUESTS
** 
*Restart, write, frequency=0
** 
** FIELD OUTPUT: F-Output-1
** 
*Output, field
*Node Output
CF, RF, U
** 
** FIELD OUTPUT: F-Output-2
** 
*Element Output, position=CENTROIDAL, directions=YES
S, 
*Output, history, frequency=0
*End Step
