*Heading
** Job name: Job-1 Model name: Model-1
** Generated by: Abaqus/CAE 2022
*Preprint, echo=NO, model=NO, history=NO, contact=NO
**
** PARTS
**
*Part, name=Part-1
*Node
      1,           0.,           0.
      2,           2.,           0.
      3,           4.,           0.
      4,           6.,           0.
      5,           8.,           0.
      6,          10.,           0.
      7,          12.,           0.
      8,          14.,           0.
      9,          16.,           0.
     10,          18.,           0.
     11,          20.,           0.
     12,          22.,           0.
     13,          24.,           0.
     14,          26.,           0.
     15,          28.,           0.
     16,          30.,           0.
     17,          32.,           0.
     18,          34.,           0.
     19,          36.,           0.
     20,          38.,           0.
     21,          40.,           0.
     22,          42.,           0.
     23,          44.,           0.
     24,          46.,           0.
     25,          48.,           0.
     26,          50.,           0.
     27,          52.,           0.
     28,          54.,           0.
     29,          56.,           0.
     30,          58.,           0.
     31,          60.,           0.
     32,          62.,           0.
     33,          64.,           0.
     34,          66.,           0.
     35,          68.,           0.
     36,          70.,           0.
     37,          72.,           0.
     38,          74.,           0.
     39,          76.,           0.
     40,          78.,           0.
     41,          80.,           0.
     42,          82.,           0.
     43,          84.,           0.
     44,          86.,           0.
     45,          88.,           0.
     46,          90.,           0.
     47,          92.,           0.
     48,          94.,           0.
     49,          96.,           0.
     50,          98.,           0.
     51,         100.,           0.
     52,           0.,           2.
     53,           2.,           2.
     54,           4.,           2.
     55,           6.,           2.
     56,           8.,           2.
     57,          10.,           2.
     58,          12.,           2.
     59,          14.,           2.
     60,          16.,           2.
     61,          18.,           2.
     62,          20.,           2.
     63,          22.,           2.
     64,          24.,           2.
     65,          26.,           2.
     66,          28.,           2.
     67,          30.,           2.
     68,          32.,           2.
     69,          34.,           2.
     70,          36.,           2.
     71,          38.,           2.
     72,          40.,           2.
     73,          42.,           2.
     74,          44.,           2.
     75,          46.,           2.
     76,          48.,           2.
     77,          50.,           2.
     78,          52.,           2.
     79,          54.,           2.
     80,          56.,           2.
     81,          58.,           2.
     82,          60.,           2.
     83,          62.,           2.
     84,          64.,           2.
     85,          66.,           2.
     86,          68.,           2.
     87,          70.,           2.
     88,          72.,           2.
     89,          74.,           2.
     90,          76.,           2.
     91,          78.,           2.
     92,          80.,           2.
     93,          82.,           2.
     94,          84.,           2.
     95,          86.,           2.
     96,          88.,           2.
     97,          90.,           2.
     98,          92.,           2.
     99,          94.,           2.
    100,          96.,           2.
    101,          98.,           2.
    102,         100.,           2.
    103,           0.,           4.
    104,           2.,           4.
    105,           4.,           4.
    106,           6.,           4.
    107,           8.,           4.
    108,          10.,           4.
    109,          12.,           4.
    110,          14.,           4.
    111,          16.,           4.
    112,          18.,           4.
    113,          20.,           4.
    114,          22.,           4.
    115,          24.,           4.
    116,          26.,           4.
    117,          28.,           4.
    118,          30.,           4.
    119,          32.,           4.
    120,          34.,           4.
    121,          36.,           4.
    122,          38.,           4.
    123,          40.,           4.
    124,          42.,           4.
    125,          44.,           4.
    126,          46.,           4.
    127,          48.,           4.
    128,          50.,           4.
    129,          52.,           4.
    130,          54.,           4.
    131,          56.,           4.
    132,          58.,           4.
    133,          60.,           4.
    134,          62.,           4.
    135,          64.,           4.
    136,          66.,           4.
    137,          68.,           4.
    138,          70.,           4.
    139,          72.,           4.
    140,          74.,           4.
    141,          76.,           4.
    142,          78.,           4.
    143,          80.,           4.
    144,          82.,           4.
    145,          84.,           4.
    146,          86.,           4.
    147,          88.,           4.
    148,          90.,           4.
    149,          92.,           4.
    150,          94.,           4.
    151,          96.,           4.
    152,          98.,           4.
    153,         100.,           4.
    154,           0.,           6.
    155,           2.,           6.
    156,           4.,           6.
    157,           6.,           6.
    158,           8.,           6.
    159,          10.,           6.
    160,          12.,           6.
    161,          14.,           6.
    162,          16.,           6.
    163,          18.,           6.
    164,          20.,           6.
    165,          22.,           6.
    166,          24.,           6.
    167,          26.,           6.
    168,          28.,           6.
    169,          30.,           6.
    170,          32.,           6.
    171,          34.,           6.
    172,          36.,           6.
    173,          38.,           6.
    174,          40.,           6.
    175,          42.,           6.
    176,          44.,           6.
    177,          46.,           6.
    178,          48.,           6.
    179,          50.,           6.
    180,          52.,           6.
    181,          54.,           6.
    182,          56.,           6.
    183,          58.,           6.
    184,          60.,           6.
    185,          62.,           6.
    186,          64.,           6.
    187,          66.,           6.
    188,          68.,           6.
    189,          70.,           6.
    190,          72.,           6.
    191,          74.,           6.
    192,          76.,           6.
    193,          78.,           6.
    194,          80.,           6.
    195,          82.,           6.
    196,          84.,           6.
    197,          86.,           6.
    198,          88.,           6.
    199,          90.,           6.
    200,          92.,           6.
    201,          94.,           6.
    202,          96.,           6.
    203,          98.,           6.
    204,         100.,           6.
    205,           0.,           8.
    206,           2.,           8.
    207,           4.,           8.
    208,           6.,           8.
    209,           8.,           8.
    210,          10.,           8.
    211,          12.,           8.
    212,          14.,           8.
    213,          16.,           8.
    214,          18.,           8.
    215,          20.,           8.
    216,          22.,           8.
    217,          24.,           8.
    218,          26.,           8.
    219,          28.,           8.
    220,          30.,           8.
    221,          32.,           8.
    222,          34.,           8.
    223,          36.,           8.
    224,          38.,           8.
    225,          40.,           8.
    226,          42.,           8.
    227,          44.,           8.
    228,          46.,           8.
    229,          48.,           8.
    230,          50.,           8.
    231,          52.,           8.
    232,          54.,           8.
    233,          56.,           8.
    234,          58.,           8.
    235,          60.,           8.
    236,          62.,           8.
    237,          64.,           8.
    238,          66.,           8.
    239,          68.,           8.
    240,          70.,           8.
    241,          72.,           8.
    242,          74.,           8.
    243,          76.,           8.
    244,          78.,           8.
    245,          80.,           8.
    246,          82.,           8.
    247,          84.,           8.
    248,          86.,           8.
    249,          88.,           8.
    250,          90.,           8.
    251,          92.,           8.
    252,          94.,           8.
    253,          96.,           8.
    254,          98.,           8.
    255,         100.,           8.
    256,           0.,          10.
    257,           2.,          10.
    258,           4.,          10.
    259,           6.,          10.
    260,           8.,          10.
    261,          10.,          10.
    262,          12.,          10.
    263,          14.,          10.
    264,          16.,          10.
    265,          18.,          10.
    266,          20.,          10.
    267,          22.,          10.
    268,          24.,          10.
    269,          26.,          10.
    270,          28.,          10.
    271,          30.,          10.
    272,          32.,          10.
    273,          34.,          10.
    274,          36.,          10.
    275,          38.,          10.
    276,          40.,          10.
    277,          42.,          10.
    278,          44.,          10.
    279,          46.,          10.
    280,          48.,          10.
    281,          50.,          10.
    282,          52.,          10.
    283,          54.,          10.
    284,          56.,          10.
    285,          58.,          10.
    286,          60.,          10.
    287,          62.,          10.
    288,          64.,          10.
    289,          66.,          10.
    290,          68.,          10.
    291,          70.,          10.
    292,          72.,          10.
    293,          74.,          10.
    294,          76.,          10.
    295,          78.,          10.
    296,          80.,          10.
    297,          82.,          10.
    298,          84.,          10.
    299,          86.,          10.
    300,          88.,          10.
    301,          90.,          10.
    302,          92.,          10.
    303,          94.,          10.
    304,          96.,          10.
    305,          98.,          10.
    306,         100.,          10.
    307,           0.,          12.
    308,           2.,          12.
    309,           4.,          12.
    310,           6.,          12.
    311,           8.,          12.
    312,          10.,          12.
    313,          12.,          12.
    314,          14.,          12.
    315,          16.,          12.
    316,          18.,          12.
    317,          20.,          12.
    318,          22.,          12.
    319,          24.,          12.
    320,          26.,          12.
    321,          28.,          12.
    322,          30.,          12.
    323,          32.,          12.
    324,          34.,          12.
    325,          36.,          12.
    326,          38.,          12.
    327,          40.,          12.
    328,          42.,          12.
    329,          44.,          12.
    330,          46.,          12.
    331,          48.,          12.
    332,          50.,          12.
    333,          52.,          12.
    334,          54.,          12.
    335,          56.,          12.
    336,          58.,          12.
    337,          60.,          12.
    338,          62.,          12.
    339,          64.,          12.
    340,          66.,          12.
    341,          68.,          12.
    342,          70.,          12.
    343,          72.,          12.
    344,          74.,          12.
    345,          76.,          12.
    346,          78.,          12.
    347,          80.,          12.
    348,          82.,          12.
    349,          84.,          12.
    350,          86.,          12.
    351,          88.,          12.
    352,          90.,          12.
    353,          92.,          12.
    354,          94.,          12.
    355,          96.,          12.
    356,          98.,          12.
    357,         100.,          12.
    358,           0.,          14.
    359,           2.,          14.
    360,           4.,          14.
    361,           6.,          14.
    362,           8.,          14.
    363,          10.,          14.
    364,          12.,          14.
    365,          14.,          14.
    366,          16.,          14.
    367,          18.,          14.
    368,          20.,          14.
    369,          22.,          14.
    370,          24.,          14.
    371,          26.,          14.
    372,          28.,          14.
    373,          30.,          14.
    374,          32.,          14.
    375,          34.,          14.
    376,          36.,          14.
    377,          38.,          14.
    378,          40.,          14.
    379,          42.,          14.
    380,          44.,          14.
    381,          46.,          14.
    382,          48.,          14.
    383,          50.,          14.
    384,          52.,          14.
    385,          54.,          14.
    386,          56.,          14.
    387,          58.,          14.
    388,          60.,          14.
    389,          62.,          14.
    390,          64.,          14.
    391,          66.,          14.
    392,          68.,          14.
    393,          70.,          14.
    394,          72.,          14.
    395,          74.,          14.
    396,          76.,          14.
    397,          78.,          14.
    398,          80.,          14.
    399,          82.,          14.
    400,          84.,          14.
    401,          86.,          14.
    402,          88.,          14.
    403,          90.,          14.
    404,          92.,          14.
    405,          94.,          14.
    406,          96.,          14.
    407,          98.,          14.
    408,         100.,          14.
    409,           0.,          16.
    410,           2.,          16.
    411,           4.,          16.
    412,           6.,          16.
    413,           8.,          16.
    414,          10.,          16.
    415,          12.,          16.
    416,          14.,          16.
    417,          16.,          16.
    418,          18.,          16.
    419,          20.,          16.
    420,          22.,          16.
    421,          24.,          16.
    422,          26.,          16.
    423,          28.,          16.
    424,          30.,          16.
    425,          32.,          16.
    426,          34.,          16.
    427,          36.,          16.
    428,          38.,          16.
    429,          40.,          16.
    430,          42.,          16.
    431,          44.,          16.
    432,          46.,          16.
    433,          48.,          16.
    434,          50.,          16.
    435,          52.,          16.
    436,          54.,          16.
    437,          56.,          16.
    438,          58.,          16.
    439,          60.,          16.
    440,          62.,          16.
    441,          64.,          16.
    442,          66.,          16.
    443,          68.,          16.
    444,          70.,          16.
    445,          72.,          16.
    446,          74.,          16.
    447,          76.,          16.
    448,          78.,          16.
    449,          80.,          16.
    450,          82.,          16.
    451,          84.,          16.
    452,          86.,          16.
    453,          88.,          16.
    454,          90.,          16.
    455,          92.,          16.
    456,          94.,          16.
    457,          96.,          16.
    458,          98.,          16.
    459,         100.,          16.
    460,           0.,          18.
    461,           2.,          18.
    462,           4.,          18.
    463,           6.,          18.
    464,           8.,          18.
    465,          10.,          18.
    466,          12.,          18.
    467,          14.,          18.
    468,          16.,          18.
    469,          18.,          18.
    470,          20.,          18.
    471,          22.,          18.
    472,          24.,          18.
    473,          26.,          18.
    474,          28.,          18.
    475,          30.,          18.
    476,          32.,          18.
    477,          34.,          18.
    478,          36.,          18.
    479,          38.,          18.
    480,          40.,          18.
    481,          42.,          18.
    482,          44.,          18.
    483,          46.,          18.
    484,          48.,          18.
    485,          50.,          18.
    486,          52.,          18.
    487,          54.,          18.
    488,          56.,          18.
    489,          58.,          18.
    490,          60.,          18.
    491,          62.,          18.
    492,          64.,          18.
    493,          66.,          18.
    494,          68.,          18.
    495,          70.,          18.
    496,          72.,          18.
    497,          74.,          18.
    498,          76.,          18.
    499,          78.,          18.
    500,          80.,          18.
    501,          82.,          18.
    502,          84.,          18.
    503,          86.,          18.
    504,          88.,          18.
    505,          90.,          18.
    506,          92.,          18.
    507,          94.,          18.
    508,          96.,          18.
    509,          98.,          18.
    510,         100.,          18.
    511,           0.,          20.
    512,           2.,          20.
    513,           4.,          20.
    514,           6.,          20.
    515,           8.,          20.
    516,          10.,          20.
    517,          12.,          20.
    518,          14.,          20.
    519,          16.,          20.
    520,          18.,          20.
    521,          20.,          20.
    522,          22.,          20.
    523,          24.,          20.
    524,          26.,          20.
    525,          28.,          20.
    526,          30.,          20.
    527,          32.,          20.
    528,          34.,          20.
    529,          36.,          20.
    530,          38.,          20.
    531,          40.,          20.
    532,          42.,          20.
    533,          44.,          20.
    534,          46.,          20.
    535,          48.,          20.
    536,          50.,          20.
    537,          52.,          20.
    538,          54.,          20.
    539,          56.,          20.
    540,          58.,          20.
    541,          60.,          20.
    542,          62.,          20.
    543,          64.,          20.
    544,          66.,          20.
    545,          68.,          20.
    546,          70.,          20.
    547,          72.,          20.
    548,          74.,          20.
    549,          76.,          20.
    550,          78.,          20.
    551,          80.,          20.
    552,          82.,          20.
    553,          84.,          20.
    554,          86.,          20.
    555,          88.,          20.
    556,          90.,          20.
    557,          92.,          20.
    558,          94.,          20.
    559,          96.,          20.
    560,          98.,          20.
    561,         100.,          20.
    562,           0.,          22.
    563,           2.,          22.
    564,           4.,          22.
    565,           6.,          22.
    566,           8.,          22.
    567,          10.,          22.
    568,          12.,          22.
    569,          14.,          22.
    570,          16.,          22.
    571,          18.,          22.
    572,          20.,          22.
    573,          22.,          22.
    574,          24.,          22.
    575,          26.,          22.
    576,          28.,          22.
    577,          30.,          22.
    578,          32.,          22.
    579,          34.,          22.
    580,          36.,          22.
    581,          38.,          22.
    582,          40.,          22.
    583,          42.,          22.
    584,          44.,          22.
    585,          46.,          22.
    586,          48.,          22.
    587,          50.,          22.
    588,          52.,          22.
    589,          54.,          22.
    590,          56.,          22.
    591,          58.,          22.
    592,          60.,          22.
    593,          62.,          22.
    594,          64.,          22.
    595,          66.,          22.
    596,          68.,          22.
    597,          70.,          22.
    598,          72.,          22.
    599,          74.,          22.
    600,          76.,          22.
    601,          78.,          22.
    602,          80.,          22.
    603,          82.,          22.
    604,          84.,          22.
    605,          86.,          22.
    606,          88.,          22.
    607,          90.,          22.
    608,          92.,          22.
    609,          94.,          22.
    610,          96.,          22.
    611,          98.,          22.
    612,         100.,          22.
    613,           0.,          24.
    614,           2.,          24.
    615,           4.,          24.
    616,           6.,          24.
    617,           8.,          24.
    618,          10.,          24.
    619,          12.,          24.
    620,          14.,          24.
    621,          16.,          24.
    622,          18.,          24.
    623,          20.,          24.
    624,          22.,          24.
    625,          24.,          24.
    626,          26.,          24.
    627,          28.,          24.
    628,          30.,          24.
    629,          32.,          24.
    630,          34.,          24.
    631,          36.,          24.
    632,          38.,          24.
    633,          40.,          24.
    634,          42.,          24.
    635,          44.,          24.
    636,          46.,          24.
    637,          48.,          24.
    638,          50.,          24.
    639,          52.,          24.
    640,          54.,          24.
    641,          56.,          24.
    642,          58.,          24.
    643,          60.,          24.
    644,          62.,          24.
    645,          64.,          24.
    646,          66.,          24.
    647,          68.,          24.
    648,          70.,          24.
    649,          72.,          24.
    650,          74.,          24.
    651,          76.,          24.
    652,          78.,          24.
    653,          80.,          24.
    654,          82.,          24.
    655,          84.,          24.
    656,          86.,          24.
    657,          88.,          24.
    658,          90.,          24.
    659,          92.,          24.
    660,          94.,          24.
    661,          96.,          24.
    662,          98.,          24.
    663,         100.,          24.
    664,           0.,          26.
    665,           2.,          26.
    666,           4.,          26.
    667,           6.,          26.
    668,           8.,          26.
    669,          10.,          26.
    670,          12.,          26.
    671,          14.,          26.
    672,          16.,          26.
    673,          18.,          26.
    674,          20.,          26.
    675,          22.,          26.
    676,          24.,          26.
    677,          26.,          26.
    678,          28.,          26.
    679,          30.,          26.
    680,          32.,          26.
    681,          34.,          26.
    682,          36.,          26.
    683,          38.,          26.
    684,          40.,          26.
    685,          42.,          26.
    686,          44.,          26.
    687,          46.,          26.
    688,          48.,          26.
    689,          50.,          26.
    690,          52.,          26.
    691,          54.,          26.
    692,          56.,          26.
    693,          58.,          26.
    694,          60.,          26.
    695,          62.,          26.
    696,          64.,          26.
    697,          66.,          26.
    698,          68.,          26.
    699,          70.,          26.
    700,          72.,          26.
    701,          74.,          26.
    702,          76.,          26.
    703,          78.,          26.
    704,          80.,          26.
    705,          82.,          26.
    706,          84.,          26.
    707,          86.,          26.
    708,          88.,          26.
    709,          90.,          26.
    710,          92.,          26.
    711,          94.,          26.
    712,          96.,          26.
    713,          98.,          26.
    714,         100.,          26.
    715,           0.,          28.
    716,           2.,          28.
    717,           4.,          28.
    718,           6.,          28.
    719,           8.,          28.
    720,          10.,          28.
    721,          12.,          28.
    722,          14.,          28.
    723,          16.,          28.
    724,          18.,          28.
    725,          20.,          28.
    726,          22.,          28.
    727,          24.,          28.
    728,          26.,          28.
    729,          28.,          28.
    730,          30.,          28.
    731,          32.,          28.
    732,          34.,          28.
    733,          36.,          28.
    734,          38.,          28.
    735,          40.,          28.
    736,          42.,          28.
    737,          44.,          28.
    738,          46.,          28.
    739,          48.,          28.
    740,          50.,          28.
    741,          52.,          28.
    742,          54.,          28.
    743,          56.,          28.
    744,          58.,          28.
    745,          60.,          28.
    746,          62.,          28.
    747,          64.,          28.
    748,          66.,          28.
    749,          68.,          28.
    750,          70.,          28.
    751,          72.,          28.
    752,          74.,          28.
    753,          76.,          28.
    754,          78.,          28.
    755,          80.,          28.
    756,          82.,          28.
    757,          84.,          28.
    758,          86.,          28.
    759,          88.,          28.
    760,          90.,          28.
    761,          92.,          28.
    762,          94.,          28.
    763,          96.,          28.
    764,          98.,          28.
    765,         100.,          28.
    766,           0.,          30.
    767,           2.,          30.
    768,           4.,          30.
    769,           6.,          30.
    770,           8.,          30.
    771,          10.,          30.
    772,          12.,          30.
    773,          14.,          30.
    774,          16.,          30.
    775,          18.,          30.
    776,          20.,          30.
    777,          22.,          30.
    778,          24.,          30.
    779,          26.,          30.
    780,          28.,          30.
    781,          30.,          30.
    782,          32.,          30.
    783,          34.,          30.
    784,          36.,          30.
    785,          38.,          30.
    786,          40.,          30.
    787,          42.,          30.
    788,          44.,          30.
    789,          46.,          30.
    790,          48.,          30.
    791,          50.,          30.
    792,          52.,          30.
    793,          54.,          30.
    794,          56.,          30.
    795,          58.,          30.
    796,          60.,          30.
    797,          62.,          30.
    798,          64.,          30.
    799,          66.,          30.
    800,          68.,          30.
    801,          70.,          30.
    802,          72.,          30.
    803,          74.,          30.
    804,          76.,          30.
    805,          78.,          30.
    806,          80.,          30.
    807,          82.,          30.
    808,          84.,          30.
    809,          86.,          30.
    810,          88.,          30.
    811,          90.,          30.
    812,          92.,          30.
    813,          94.,          30.
    814,          96.,          30.
    815,          98.,          30.
    816,         100.,          30.
*Element, type=CPS4
  1,   1,   2,  53,  52
  2,   2,   3,  54,  53
  3,   3,   4,  55,  54
  4,   4,   5,  56,  55
  5,   5,   6,  57,  56
  6,   6,   7,  58,  57
  7,   7,   8,  59,  58
  8,   8,   9,  60,  59
  9,   9,  10,  61,  60
 10,  10,  11,  62,  61
 11,  11,  12,  63,  62
 12,  12,  13,  64,  63
 13,  13,  14,  65,  64
 14,  14,  15,  66,  65
 15,  15,  16,  67,  66
 16,  16,  17,  68,  67
 17,  17,  18,  69,  68
 18,  18,  19,  70,  69
 19,  19,  20,  71,  70
 20,  20,  21,  72,  71
 21,  21,  22,  73,  72
 22,  22,  23,  74,  73
 23,  23,  24,  75,  74
 24,  24,  25,  76,  75
 25,  25,  26,  77,  76
 26,  26,  27,  78,  77
 27,  27,  28,  79,  78
 28,  28,  29,  80,  79
 29,  29,  30,  81,  80
 30,  30,  31,  82,  81
 31,  31,  32,  83,  82
 32,  32,  33,  84,  83
 33,  33,  34,  85,  84
 34,  34,  35,  86,  85
 35,  35,  36,  87,  86
 36,  36,  37,  88,  87
 37,  37,  38,  89,  88
 38,  38,  39,  90,  89
 39,  39,  40,  91,  90
 40,  40,  41,  92,  91
 41,  41,  42,  93,  92
 42,  42,  43,  94,  93
 43,  43,  44,  95,  94
 44,  44,  45,  96,  95
 45,  45,  46,  97,  96
 46,  46,  47,  98,  97
 47,  47,  48,  99,  98
 48,  48,  49, 100,  99
 49,  49,  50, 101, 100
 50,  50,  51, 102, 101
 51,  52,  53, 104, 103
 52,  53,  54, 105, 104
 53,  54,  55, 106, 105
 54,  55,  56, 107, 106
 55,  56,  57, 108, 107
 56,  57,  58, 109, 108
 57,  58,  59, 110, 109
 58,  59,  60, 111, 110
 59,  60,  61, 112, 111
 60,  61,  62, 113, 112
 61,  62,  63, 114, 113
 62,  63,  64, 115, 114
 63,  64,  65, 116, 115
 64,  65,  66, 117, 116
 65,  66,  67, 118, 117
 66,  67,  68, 119, 118
 67,  68,  69, 120, 119
 68,  69,  70, 121, 120
 69,  70,  71, 122, 121
 70,  71,  72, 123, 122
 71,  72,  73, 124, 123
 72,  73,  74, 125, 124
 73,  74,  75, 126, 125
 74,  75,  76, 127, 126
 75,  76,  77, 128, 127
 76,  77,  78, 129, 128
 77,  78,  79, 130, 129
 78,  79,  80, 131, 130
 79,  80,  81, 132, 131
 80,  81,  82, 133, 132
 81,  82,  83, 134, 133
 82,  83,  84, 135, 134
 83,  84,  85, 136, 135
 84,  85,  86, 137, 136
 85,  86,  87, 138, 137
 86,  87,  88, 139, 138
 87,  88,  89, 140, 139
 88,  89,  90, 141, 140
 89,  90,  91, 142, 141
 90,  91,  92, 143, 142
 91,  92,  93, 144, 143
 92,  93,  94, 145, 144
 93,  94,  95, 146, 145
 94,  95,  96, 147, 146
 95,  96,  97, 148, 147
 96,  97,  98, 149, 148
 97,  98,  99, 150, 149
 98,  99, 100, 151, 150
 99, 100, 101, 152, 151
100, 101, 102, 153, 152
101, 103, 104, 155, 154
102, 104, 105, 156, 155
103, 105, 106, 157, 156
104, 106, 107, 158, 157
105, 107, 108, 159, 158
106, 108, 109, 160, 159
107, 109, 110, 161, 160
108, 110, 111, 162, 161
109, 111, 112, 163, 162
110, 112, 113, 164, 163
111, 113, 114, 165, 164
112, 114, 115, 166, 165
113, 115, 116, 167, 166
114, 116, 117, 168, 167
115, 117, 118, 169, 168
116, 118, 119, 170, 169
117, 119, 120, 171, 170
118, 120, 121, 172, 171
119, 121, 122, 173, 172
120, 122, 123, 174, 173
121, 123, 124, 175, 174
122, 124, 125, 176, 175
123, 125, 126, 177, 176
124, 126, 127, 178, 177
125, 127, 128, 179, 178
126, 128, 129, 180, 179
127, 129, 130, 181, 180
128, 130, 131, 182, 181
129, 131, 132, 183, 182
130, 132, 133, 184, 183
131, 133, 134, 185, 184
132, 134, 135, 186, 185
133, 135, 136, 187, 186
134, 136, 137, 188, 187
135, 137, 138, 189, 188
136, 138, 139, 190, 189
137, 139, 140, 191, 190
138, 140, 141, 192, 191
139, 141, 142, 193, 192
140, 142, 143, 194, 193
141, 143, 144, 195, 194
142, 144, 145, 196, 195
143, 145, 146, 197, 196
144, 146, 147, 198, 197
145, 147, 148, 199, 198
146, 148, 149, 200, 199
147, 149, 150, 201, 200
148, 150, 151, 202, 201
149, 151, 152, 203, 202
150, 152, 153, 204, 203
151, 154, 155, 206, 205
152, 155, 156, 207, 206
153, 156, 157, 208, 207
154, 157, 158, 209, 208
155, 158, 159, 210, 209
156, 159, 160, 211, 210
157, 160, 161, 212, 211
158, 161, 162, 213, 212
159, 162, 163, 214, 213
160, 163, 164, 215, 214
161, 164, 165, 216, 215
162, 165, 166, 217, 216
163, 166, 167, 218, 217
164, 167, 168, 219, 218
165, 168, 169, 220, 219
166, 169, 170, 221, 220
167, 170, 171, 222, 221
168, 171, 172, 223, 222
169, 172, 173, 224, 223
170, 173, 174, 225, 224
171, 174, 175, 226, 225
172, 175, 176, 227, 226
173, 176, 177, 228, 227
174, 177, 178, 229, 228
175, 178, 179, 230, 229
176, 179, 180, 231, 230
177, 180, 181, 232, 231
178, 181, 182, 233, 232
179, 182, 183, 234, 233
180, 183, 184, 235, 234
181, 184, 185, 236, 235
182, 185, 186, 237, 236
183, 186, 187, 238, 237
184, 187, 188, 239, 238
185, 188, 189, 240, 239
186, 189, 190, 241, 240
187, 190, 191, 242, 241
188, 191, 192, 243, 242
189, 192, 193, 244, 243
190, 193, 194, 245, 244
191, 194, 195, 246, 245
192, 195, 196, 247, 246
193, 196, 197, 248, 247
194, 197, 198, 249, 248
195, 198, 199, 250, 249
196, 199, 200, 251, 250
197, 200, 201, 252, 251
198, 201, 202, 253, 252
199, 202, 203, 254, 253
200, 203, 204, 255, 254
201, 205, 206, 257, 256
202, 206, 207, 258, 257
203, 207, 208, 259, 258
204, 208, 209, 260, 259
205, 209, 210, 261, 260
206, 210, 211, 262, 261
207, 211, 212, 263, 262
208, 212, 213, 264, 263
209, 213, 214, 265, 264
210, 214, 215, 266, 265
211, 215, 216, 267, 266
212, 216, 217, 268, 267
213, 217, 218, 269, 268
214, 218, 219, 270, 269
215, 219, 220, 271, 270
216, 220, 221, 272, 271
217, 221, 222, 273, 272
218, 222, 223, 274, 273
219, 223, 224, 275, 274
220, 224, 225, 276, 275
221, 225, 226, 277, 276
222, 226, 227, 278, 277
223, 227, 228, 279, 278
224, 228, 229, 280, 279
225, 229, 230, 281, 280
226, 230, 231, 282, 281
227, 231, 232, 283, 282
228, 232, 233, 284, 283
229, 233, 234, 285, 284
230, 234, 235, 286, 285
231, 235, 236, 287, 286
232, 236, 237, 288, 287
233, 237, 238, 289, 288
234, 238, 239, 290, 289
235, 239, 240, 291, 290
236, 240, 241, 292, 291
237, 241, 242, 293, 292
238, 242, 243, 294, 293
239, 243, 244, 295, 294
240, 244, 245, 296, 295
241, 245, 246, 297, 296
242, 246, 247, 298, 297
243, 247, 248, 299, 298
244, 248, 249, 300, 299
245, 249, 250, 301, 300
246, 250, 251, 302, 301
247, 251, 252, 303, 302
248, 252, 253, 304, 303
249, 253, 254, 305, 304
250, 254, 255, 306, 305
251, 256, 257, 308, 307
252, 257, 258, 309, 308
253, 258, 259, 310, 309
254, 259, 260, 311, 310
255, 260, 261, 312, 311
256, 261, 262, 313, 312
257, 262, 263, 314, 313
258, 263, 264, 315, 314
259, 264, 265, 316, 315
260, 265, 266, 317, 316
261, 266, 267, 318, 317
262, 267, 268, 319, 318
263, 268, 269, 320, 319
264, 269, 270, 321, 320
265, 270, 271, 322, 321
266, 271, 272, 323, 322
267, 272, 273, 324, 323
268, 273, 274, 325, 324
269, 274, 275, 326, 325
270, 275, 276, 327, 326
271, 276, 277, 328, 327
272, 277, 278, 329, 328
273, 278, 279, 330, 329
274, 279, 280, 331, 330
275, 280, 281, 332, 331
276, 281, 282, 333, 332
277, 282, 283, 334, 333
278, 283, 284, 335, 334
279, 284, 285, 336, 335
280, 285, 286, 337, 336
281, 286, 287, 338, 337
282, 287, 288, 339, 338
283, 288, 289, 340, 339
284, 289, 290, 341, 340
285, 290, 291, 342, 341
286, 291, 292, 343, 342
287, 292, 293, 344, 343
288, 293, 294, 345, 344
289, 294, 295, 346, 345
290, 295, 296, 347, 346
291, 296, 297, 348, 347
292, 297, 298, 349, 348
293, 298, 299, 350, 349
294, 299, 300, 351, 350
295, 300, 301, 352, 351
296, 301, 302, 353, 352
297, 302, 303, 354, 353
298, 303, 304, 355, 354
299, 304, 305, 356, 355
300, 305, 306, 357, 356
301, 307, 308, 359, 358
302, 308, 309, 360, 359
303, 309, 310, 361, 360
304, 310, 311, 362, 361
305, 311, 312, 363, 362
306, 312, 313, 364, 363
307, 313, 314, 365, 364
308, 314, 315, 366, 365
309, 315, 316, 367, 366
310, 316, 317, 368, 367
311, 317, 318, 369, 368
312, 318, 319, 370, 369
313, 319, 320, 371, 370
314, 320, 321, 372, 371
315, 321, 322, 373, 372
316, 322, 323, 374, 373
317, 323, 324, 375, 374
318, 324, 325, 376, 375
319, 325, 326, 377, 376
320, 326, 327, 378, 377
321, 327, 328, 379, 378
322, 328, 329, 380, 379
323, 329, 330, 381, 380
324, 330, 331, 382, 381
325, 331, 332, 383, 382
326, 332, 333, 384, 383
327, 333, 334, 385, 384
328, 334, 335, 386, 385
329, 335, 336, 387, 386
330, 336, 337, 388, 387
331, 337, 338, 389, 388
332, 338, 339, 390, 389
333, 339, 340, 391, 390
334, 340, 341, 392, 391
335, 341, 342, 393, 392
336, 342, 343, 394, 393
337, 343, 344, 395, 394
338, 344, 345, 396, 395
339, 345, 346, 397, 396
340, 346, 347, 398, 397
341, 347, 348, 399, 398
342, 348, 349, 400, 399
343, 349, 350, 401, 400
344, 350, 351, 402, 401
345, 351, 352, 403, 402
346, 352, 353, 404, 403
347, 353, 354, 405, 404
348, 354, 355, 406, 405
349, 355, 356, 407, 406
350, 356, 357, 408, 407
351, 358, 359, 410, 409
352, 359, 360, 411, 410
353, 360, 361, 412, 411
354, 361, 362, 413, 412
355, 362, 363, 414, 413
356, 363, 364, 415, 414
357, 364, 365, 416, 415
358, 365, 366, 417, 416
359, 366, 367, 418, 417
360, 367, 368, 419, 418
361, 368, 369, 420, 419
362, 369, 370, 421, 420
363, 370, 371, 422, 421
364, 371, 372, 423, 422
365, 372, 373, 424, 423
366, 373, 374, 425, 424
367, 374, 375, 426, 425
368, 375, 376, 427, 426
369, 376, 377, 428, 427
370, 377, 378, 429, 428
371, 378, 379, 430, 429
372, 379, 380, 431, 430
373, 380, 381, 432, 431
374, 381, 382, 433, 432
375, 382, 383, 434, 433
376, 383, 384, 435, 434
377, 384, 385, 436, 435
378, 385, 386, 437, 436
379, 386, 387, 438, 437
380, 387, 388, 439, 438
381, 388, 389, 440, 439
382, 389, 390, 441, 440
383, 390, 391, 442, 441
384, 391, 392, 443, 442
385, 392, 393, 444, 443
386, 393, 394, 445, 444
387, 394, 395, 446, 445
388, 395, 396, 447, 446
389, 396, 397, 448, 447
390, 397, 398, 449, 448
391, 398, 399, 450, 449
392, 399, 400, 451, 450
393, 400, 401, 452, 451
394, 401, 402, 453, 452
395, 402, 403, 454, 453
396, 403, 404, 455, 454
397, 404, 405, 456, 455
398, 405, 406, 457, 456
399, 406, 407, 458, 457
400, 407, 408, 459, 458
401, 409, 410, 461, 460
402, 410, 411, 462, 461
403, 411, 412, 463, 462
404, 412, 413, 464, 463
405, 413, 414, 465, 464
406, 414, 415, 466, 465
407, 415, 416, 467, 466
408, 416, 417, 468, 467
409, 417, 418, 469, 468
410, 418, 419, 470, 469
411, 419, 420, 471, 470
412, 420, 421, 472, 471
413, 421, 422, 473, 472
414, 422, 423, 474, 473
415, 423, 424, 475, 474
416, 424, 425, 476, 475
417, 425, 426, 477, 476
418, 426, 427, 478, 477
419, 427, 428, 479, 478
420, 428, 429, 480, 479
421, 429, 430, 481, 480
422, 430, 431, 482, 481
423, 431, 432, 483, 482
424, 432, 433, 484, 483
425, 433, 434, 485, 484
426, 434, 435, 486, 485
427, 435, 436, 487, 486
428, 436, 437, 488, 487
429, 437, 438, 489, 488
430, 438, 439, 490, 489
431, 439, 440, 491, 490
432, 440, 441, 492, 491
433, 441, 442, 493, 492
434, 442, 443, 494, 493
435, 443, 444, 495, 494
436, 444, 445, 496, 495
437, 445, 446, 497, 496
438, 446, 447, 498, 497
439, 447, 448, 499, 498
440, 448, 449, 500, 499
441, 449, 450, 501, 500
442, 450, 451, 502, 501
443, 451, 452, 503, 502
444, 452, 453, 504, 503
445, 453, 454, 505, 504
446, 454, 455, 506, 505
447, 455, 456, 507, 506
448, 456, 457, 508, 507
449, 457, 458, 509, 508
450, 458, 459, 510, 509
451, 460, 461, 512, 511
452, 461, 462, 513, 512
453, 462, 463, 514, 513
454, 463, 464, 515, 514
455, 464, 465, 516, 515
456, 465, 466, 517, 516
457, 466, 467, 518, 517
458, 467, 468, 519, 518
459, 468, 469, 520, 519
460, 469, 470, 521, 520
461, 470, 471, 522, 521
462, 471, 472, 523, 522
463, 472, 473, 524, 523
464, 473, 474, 525, 524
465, 474, 475, 526, 525
466, 475, 476, 527, 526
467, 476, 477, 528, 527
468, 477, 478, 529, 528
469, 478, 479, 530, 529
470, 479, 480, 531, 530
471, 480, 481, 532, 531
472, 481, 482, 533, 532
473, 482, 483, 534, 533
474, 483, 484, 535, 534
475, 484, 485, 536, 535
476, 485, 486, 537, 536
477, 486, 487, 538, 537
478, 487, 488, 539, 538
479, 488, 489, 540, 539
480, 489, 490, 541, 540
481, 490, 491, 542, 541
482, 491, 492, 543, 542
483, 492, 493, 544, 543
484, 493, 494, 545, 544
485, 494, 495, 546, 545
486, 495, 496, 547, 546
487, 496, 497, 548, 547
488, 497, 498, 549, 548
489, 498, 499, 550, 549
490, 499, 500, 551, 550
491, 500, 501, 552, 551
492, 501, 502, 553, 552
493, 502, 503, 554, 553
494, 503, 504, 555, 554
495, 504, 505, 556, 555
496, 505, 506, 557, 556
497, 506, 507, 558, 557
498, 507, 508, 559, 558
499, 508, 509, 560, 559
500, 509, 510, 561, 560
501, 511, 512, 563, 562
502, 512, 513, 564, 563
503, 513, 514, 565, 564
504, 514, 515, 566, 565
505, 515, 516, 567, 566
506, 516, 517, 568, 567
507, 517, 518, 569, 568
508, 518, 519, 570, 569
509, 519, 520, 571, 570
510, 520, 521, 572, 571
511, 521, 522, 573, 572
512, 522, 523, 574, 573
513, 523, 524, 575, 574
514, 524, 525, 576, 575
515, 525, 526, 577, 576
516, 526, 527, 578, 577
517, 527, 528, 579, 578
518, 528, 529, 580, 579
519, 529, 530, 581, 580
520, 530, 531, 582, 581
521, 531, 532, 583, 582
522, 532, 533, 584, 583
523, 533, 534, 585, 584
524, 534, 535, 586, 585
525, 535, 536, 587, 586
526, 536, 537, 588, 587
527, 537, 538, 589, 588
528, 538, 539, 590, 589
529, 539, 540, 591, 590
530, 540, 541, 592, 591
531, 541, 542, 593, 592
532, 542, 543, 594, 593
533, 543, 544, 595, 594
534, 544, 545, 596, 595
535, 545, 546, 597, 596
536, 546, 547, 598, 597
537, 547, 548, 599, 598
538, 548, 549, 600, 599
539, 549, 550, 601, 600
540, 550, 551, 602, 601
541, 551, 552, 603, 602
542, 552, 553, 604, 603
543, 553, 554, 605, 604
544, 554, 555, 606, 605
545, 555, 556, 607, 606
546, 556, 557, 608, 607
547, 557, 558, 609, 608
548, 558, 559, 610, 609
549, 559, 560, 611, 610
550, 560, 561, 612, 611
551, 562, 563, 614, 613
552, 563, 564, 615, 614
553, 564, 565, 616, 615
554, 565, 566, 617, 616
555, 566, 567, 618, 617
556, 567, 568, 619, 618
557, 568, 569, 620, 619
558, 569, 570, 621, 620
559, 570, 571, 622, 621
560, 571, 572, 623, 622
561, 572, 573, 624, 623
562, 573, 574, 625, 624
563, 574, 575, 626, 625
564, 575, 576, 627, 626
565, 576, 577, 628, 627
566, 577, 578, 629, 628
567, 578, 579, 630, 629
568, 579, 580, 631, 630
569, 580, 581, 632, 631
570, 581, 582, 633, 632
571, 582, 583, 634, 633
572, 583, 584, 635, 634
573, 584, 585, 636, 635
574, 585, 586, 637, 636
575, 586, 587, 638, 637
576, 587, 588, 639, 638
577, 588, 589, 640, 639
578, 589, 590, 641, 640
579, 590, 591, 642, 641
580, 591, 592, 643, 642
581, 592, 593, 644, 643
582, 593, 594, 645, 644
583, 594, 595, 646, 645
584, 595, 596, 647, 646
585, 596, 597, 648, 647
586, 597, 598, 649, 648
587, 598, 599, 650, 649
588, 599, 600, 651, 650
589, 600, 601, 652, 651
590, 601, 602, 653, 652
591, 602, 603, 654, 653
592, 603, 604, 655, 654
593, 604, 605, 656, 655
594, 605, 606, 657, 656
595, 606, 607, 658, 657
596, 607, 608, 659, 658
597, 608, 609, 660, 659
598, 609, 610, 661, 660
599, 610, 611, 662, 661
600, 611, 612, 663, 662
601, 613, 614, 665, 664
602, 614, 615, 666, 665
603, 615, 616, 667, 666
604, 616, 617, 668, 667
605, 617, 618, 669, 668
606, 618, 619, 670, 669
607, 619, 620, 671, 670
608, 620, 621, 672, 671
609, 621, 622, 673, 672
610, 622, 623, 674, 673
611, 623, 624, 675, 674
612, 624, 625, 676, 675
613, 625, 626, 677, 676
614, 626, 627, 678, 677
615, 627, 628, 679, 678
616, 628, 629, 680, 679
617, 629, 630, 681, 680
618, 630, 631, 682, 681
619, 631, 632, 683, 682
620, 632, 633, 684, 683
621, 633, 634, 685, 684
622, 634, 635, 686, 685
623, 635, 636, 687, 686
624, 636, 637, 688, 687
625, 637, 638, 689, 688
626, 638, 639, 690, 689
627, 639, 640, 691, 690
628, 640, 641, 692, 691
629, 641, 642, 693, 692
630, 642, 643, 694, 693
631, 643, 644, 695, 694
632, 644, 645, 696, 695
633, 645, 646, 697, 696
634, 646, 647, 698, 697
635, 647, 648, 699, 698
636, 648, 649, 700, 699
637, 649, 650, 701, 700
638, 650, 651, 702, 701
639, 651, 652, 703, 702
640, 652, 653, 704, 703
641, 653, 654, 705, 704
642, 654, 655, 706, 705
643, 655, 656, 707, 706
644, 656, 657, 708, 707
645, 657, 658, 709, 708
646, 658, 659, 710, 709
647, 659, 660, 711, 710
648, 660, 661, 712, 711
649, 661, 662, 713, 712
650, 662, 663, 714, 713
651, 664, 665, 716, 715
652, 665, 666, 717, 716
653, 666, 667, 718, 717
654, 667, 668, 719, 718
655, 668, 669, 720, 719
656, 669, 670, 721, 720
657, 670, 671, 722, 721
658, 671, 672, 723, 722
659, 672, 673, 724, 723
660, 673, 674, 725, 724
661, 674, 675, 726, 725
662, 675, 676, 727, 726
663, 676, 677, 728, 727
664, 677, 678, 729, 728
665, 678, 679, 730, 729
666, 679, 680, 731, 730
667, 680, 681, 732, 731
668, 681, 682, 733, 732
669, 682, 683, 734, 733
670, 683, 684, 735, 734
671, 684, 685, 736, 735
672, 685, 686, 737, 736
673, 686, 687, 738, 737
674, 687, 688, 739, 738
675, 688, 689, 740, 739
676, 689, 690, 741, 740
677, 690, 691, 742, 741
678, 691, 692, 743, 742
679, 692, 693, 744, 743
680, 693, 694, 745, 744
681, 694, 695, 746, 745
682, 695, 696, 747, 746
683, 696, 697, 748, 747
684, 697, 698, 749, 748
685, 698, 699, 750, 749
686, 699, 700, 751, 750
687, 700, 701, 752, 751
688, 701, 702, 753, 752
689, 702, 703, 754, 753
690, 703, 704, 755, 754
691, 704, 705, 756, 755
692, 705, 706, 757, 756
693, 706, 707, 758, 757
694, 707, 708, 759, 758
695, 708, 709, 760, 759
696, 709, 710, 761, 760
697, 710, 711, 762, 761
698, 711, 712, 763, 762
699, 712, 713, 764, 763
700, 713, 714, 765, 764
701, 715, 716, 767, 766
702, 716, 717, 768, 767
703, 717, 718, 769, 768
704, 718, 719, 770, 769
705, 719, 720, 771, 770
706, 720, 721, 772, 771
707, 721, 722, 773, 772
708, 722, 723, 774, 773
709, 723, 724, 775, 774
710, 724, 725, 776, 775
711, 725, 726, 777, 776
712, 726, 727, 778, 777
713, 727, 728, 779, 778
714, 728, 729, 780, 779
715, 729, 730, 781, 780
716, 730, 731, 782, 781
717, 731, 732, 783, 782
718, 732, 733, 784, 783
719, 733, 734, 785, 784
720, 734, 735, 786, 785
721, 735, 736, 787, 786
722, 736, 737, 788, 787
723, 737, 738, 789, 788
724, 738, 739, 790, 789
725, 739, 740, 791, 790
726, 740, 741, 792, 791
727, 741, 742, 793, 792
728, 742, 743, 794, 793
729, 743, 744, 795, 794
730, 744, 745, 796, 795
731, 745, 746, 797, 796
732, 746, 747, 798, 797
733, 747, 748, 799, 798
734, 748, 749, 800, 799
735, 749, 750, 801, 800
736, 750, 751, 802, 801
737, 751, 752, 803, 802
738, 752, 753, 804, 803
739, 753, 754, 805, 804
740, 754, 755, 806, 805
741, 755, 756, 807, 806
742, 756, 757, 808, 807
743, 757, 758, 809, 808
744, 758, 759, 810, 809
745, 759, 760, 811, 810
746, 760, 761, 812, 811
747, 761, 762, 813, 812
748, 762, 763, 814, 813
749, 763, 764, 815, 814
750, 764, 765, 816, 815
*Nset, nset=Set-nodes, generate
   1,  816,    1
*Elset, elset=Set-elements, generate
   1,  750,    1
*End Part
**  
**
** ASSEMBLY
**
*Assembly, name=Assembly
**  
*Instance, name=Part-1-1, part=Part-1
*End Instance
**  
*End Assembly
