*Heading
** Job name: Job-2d-gravity-dam Model name: Model-2
** Generated by: Abaqus/CAE 2022
*Preprint, echo=NO, model=NO, history=NO, contact=NO
**
** PARTS
**
*Part, name=Part-1
*Node
      1,          30.,          70.
      2,          30.,           0.
      3,       101.25,           0.
      4,           0.,          70.
      5,          30.,         100.
      6,           0.,         100.
      7,           0.,           0.
      8,          30.,   66.1111145
      9,          30.,   62.2222214
     10,          30.,   58.3333321
     11,          30.,   54.4444427
     12,          30.,   50.5555573
     13,          30.,   46.6666679
     14,          30.,   42.7777786
     15,          30.,   38.8888893
     16,          30.,          35.
     17,          30.,   31.1111107
     18,          30.,   27.2222214
     19,          30.,    23.333334
     20,          30.,   19.4444447
     21,          30.,   15.5555553
     22,          30.,    11.666667
     23,          30.,   7.77777767
     24,          30.,   3.88888884
     25,   33.9583321,           0.
     26,   37.9166679,           0.
     27,       41.875,           0.
     28,   45.8333321,           0.
     29,   49.7916679,           0.
     30,        53.75,           0.
     31,   57.7083321,           0.
     32,   61.6666679,           0.
     33,       65.625,           0.
     34,   69.5833359,           0.
     35,   73.5416641,           0.
     36,         77.5,           0.
     37,   81.4583359,           0.
     38,   85.4166641,           0.
     39,       89.375,           0.
     40,   93.3333359,           0.
     41,   97.2916641,           0.
     42,   98.4000015,   2.79999995
     43,   95.5500031,    5.5999999
     44,   92.6999969,   8.39999962
     45,   89.8499985,   11.1999998
     46,          87.,          14.
     47,   84.1500015,   16.7999992
     48,   81.3000031,   19.6000004
     49,   78.4499969,   22.3999996
     50,   75.5999985,   25.2000008
     51,        72.75,          28.
     52,   69.9000015,   30.7999992
     53,   67.0500031,   33.5999985
     54,   64.1999969,   36.4000015
     55,   61.3499985,   39.2000008
     56,         58.5,          42.
     57,   55.6500015,   44.7999992
     58,   52.7999992,   47.5999985
     59,   49.9500008,   50.4000015
     60,   47.0999985,   53.2000008
     61,        44.25,          56.
     62,   41.4000015,   58.7999992
     63,   38.5499992,   61.5999985
     64,   35.7000008,   64.4000015
     65,   32.8499985,   67.1999969
     66,         3.75,          70.
     67,          7.5,          70.
     68,        11.25,          70.
     69,          15.,          70.
     70,        18.75,          70.
     71,         22.5,          70.
     72,        26.25,          70.
     73,          30.,        73.75
     74,          30.,         77.5
     75,          30.,        81.25
     76,          30.,          85.
     77,          30.,        88.75
     78,          30.,         92.5
     79,          30.,        96.25
     80,        26.25,         100.
     81,         22.5,         100.
     82,        18.75,         100.
     83,          15.,         100.
     84,        11.25,         100.
     85,          7.5,         100.
     86,         3.75,         100.
     87,           0.,        96.25
     88,           0.,         92.5
     89,           0.,        88.75
     90,           0.,          85.
     91,           0.,        81.25
     92,           0.,         77.5
     93,           0.,        73.75
     94,           0.,   66.1111145
     95,           0.,   62.2222214
     96,           0.,   58.3333321
     97,           0.,   54.4444427
     98,           0.,   50.5555573
     99,           0.,   46.6666679
    100,           0.,   42.7777786
    101,           0.,   38.8888893
    102,           0.,          35.
    103,           0.,   31.1111107
    104,           0.,   27.2222214
    105,           0.,    23.333334
    106,           0.,   19.4444447
    107,           0.,   15.5555553
    108,           0.,    11.666667
    109,           0.,   7.77777767
    110,           0.,   3.88888884
    111,         3.75,           0.
    112,          7.5,           0.
    113,        11.25,           0.
    114,          15.,           0.
    115,        18.75,           0.
    116,         22.5,           0.
    117,        26.25,           0.
    118,   33.9687004,   60.6514397
    119,   33.6099701,    56.203537
    120,   33.3250961,   52.3342781
    121,   33.3752174,   48.6564636
    122,   33.4967232,   44.8176155
    123,   33.3975334,   40.8488655
    124,   33.3801117,   36.9468231
    125,   33.3764381,   33.0558205
    126,    33.375309,   29.1666164
    127,   33.3749046,   25.2777691
    128,   33.3751526,   21.3890057
    129,   33.3755913,   17.5002518
    130,   33.3923225,   13.5855465
    131,   33.5063133,   9.56245995
    132,   33.5658531,   5.29015875
    133,   95.2690048,    2.4550128
    134,   91.7658234,   3.91127467
    135,   87.2602615,   3.59207296
    136,   83.3192978,   3.33267045
    137,   79.5613022,   3.39424515
    138,   75.6263657,   3.53079486
    139,   71.5749893,   3.45118761
    140,   67.6061707,   3.43440032
    141,   63.6461067,   3.43129611
    142,   59.6874008,   3.43015337
    143,   55.7288284,   3.42879963
    144,   51.7703133,   3.42667341
    145,   47.8120041,   3.42430878
    146,   43.8114357,   3.47227311
    147,   39.8732796,    3.4864254
    148,   32.5037384,    64.116951
    149,   37.4915199,   57.6468391
    150,   40.4784889,   54.8969803
    151,    43.246685,   52.1337433
    152,   46.0439568,   49.3441315
    153,   48.9115868,   46.5472603
    154,   51.7988319,   43.7396126
    155,   54.6542587,   40.9377327
    156,   57.5043755,   38.1367378
    157,   60.3537025,   35.3358841
    158,   63.2030029,   32.5350227
    159,    66.052536,   29.7344093
    160,   68.9022675,   26.9340267
    161,   71.7523727,   24.1340694
    162,   74.6025009,   21.3341579
    163,   77.4493027,   18.5234833
    164,   80.2754593,   15.7615986
    165,   83.1212769,   13.0382929
    166,   85.9512024,   10.2949934
    167,   88.7247314,   7.37436628
    168,    36.748951,   34.9690323
    169,    36.095314,   50.6072998
    170,   37.0365868,   42.7466354
    171,   36.7715149,   15.5067482
    172,    36.759304,   19.4370117
    173,   36.8701324,     11.54778
    174,   36.7558289,   27.2219353
    175,   36.7571945,   23.3321896
    176,   36.7570038,   31.1054192
    177,    37.492157,   47.2155762
    178,   36.8027306,   38.7827835
    179,   81.5798111,   6.07425737
    180,   45.7430916,   6.99373627
    181,   53.7463837,   6.85808754
    182,   61.6642113,   6.86075306
    183,   69.5253677,   6.84962702
    184,   73.5491028,    7.0540576
    185,   49.7649155,   6.89555264
    186,   84.8251572,   6.66467333
    187,    41.726284,   7.02037954
    188,   57.7062073,   6.85990858
    189,   65.6023712,   6.85001659
    190,   78.1177216,   7.44033337
    191,   53.6923676,   37.0729141
    192,   65.0564575,   25.8703728
    193,   47.8380394,   42.5729637
    194,   73.6001892,   17.4571171
    195,   76.3832245,   14.7054262
    196,   59.3597946,   31.4742336
    197,   56.5215645,   34.2756042
    198,   79.2005234,   11.8420582
    199,   67.8982925,   23.0252991
    200,   70.7484512,   20.1865673
    201,   36.7361755,   53.7993851
    202,   42.0048561,   48.2717896
    203,   44.9467621,   45.4225121
    204,    62.208004,   28.6726646
    205,   50.7663994,   39.7616272
    206,   40.1445122,   25.2771778
    207,    40.139946,   21.3797913
    208,   40.2688141,   29.2384892
    209,     40.25634,   33.1530685
    210,   40.0398865,   36.8449669
    211,   40.2688675,   40.4364166
    212,   40.1219559,   17.4113407
    213,   40.9513626,   44.2647095
    214,   40.1060715,    13.461813
    215,   37.4268646,   7.17043829
    216,   59.6443787,   10.3178511
    217,    67.564415,    10.237237
    218,   63.6594505,   10.4179802
    219,   71.2957458,   10.2586069
    220,   75.1881561,   10.8469238
    221,   43.5534554,   10.9726954
    222,   55.6972694,    10.298543
    223,   47.7799454,    10.413063
    224,   51.7193871,     10.32512
    225,   39.3422775,    51.154129
    226,   64.0439682,    21.902071
    227,   66.9053116,   18.9296188
    228,   61.2136192,   24.7848778
    229,   69.8608398,   16.2603722
    230,   72.6152267,   13.7285147
    231,   49.8578873,   35.8900757
    232,   58.3634033,   27.6151295
    233,   46.4699326,    38.306736
    234,   52.6432571,   33.2571907
    235,   43.8878059,   41.5747566
    236,   55.4850922,   30.4587269
    237,    43.490509,    15.372571
    238,    43.458828,   23.1998768
    239,   43.5050011,    19.341465
    240,    43.801033,   27.0699177
    241,   43.4165344,   35.4985275
    242,   44.3897934,    31.496294
    243,   39.9365616,   10.0346212
    244,   36.5481987,   3.18940449
    245,   49.8802757,   13.9118748
    246,   46.4243622,   13.6207666
    247,   69.4603119,   12.9699917
    248,   61.4946213,   13.9904108
    249,   65.9922333,   14.3819313
    250,   53.8618317,   13.8012419
    251,   57.6024323,   13.6948881
    252,    48.775486,   32.2243919
    253,   51.6381569,   29.4296341
    254,   62.9578362,   17.8907509
    255,   42.8166046,     38.53228
    256,   60.1834641,   20.8989735
    257,   57.3932953,   23.7099972
    258,   54.5556679,   26.5538616
    259,   47.3904915,   17.5847931
    260,   46.9505577,    24.524559
    261,   46.1847725,   21.2462807
    262,   47.7242203,   28.3856106
    263,   52.3841248,   17.9671364
    264,   59.0853119,   17.1375923
    265,   55.8734894,   16.4857674
    266,   46.5819283,   34.6832047
    267,   50.6918945,   25.5025291
    268,   53.5129547,   22.5237026
    269,   56.4054413,   19.7871952
    270,   49.5191307,   21.5581665
    271,   82.1326141,   9.22576809
    272,         3.75,        73.75
    273,          7.5,        73.75
    274,        11.25,        73.75
    275,          15.,        73.75
    276,        18.75,        73.75
    277,         22.5,        73.75
    278,        26.25,        73.75
    279,         3.75,         77.5
    280,          7.5,         77.5
    281,        11.25,         77.5
    282,          15.,         77.5
    283,        18.75,         77.5
    284,         22.5,         77.5
    285,        26.25,         77.5
    286,         3.75,        81.25
    287,          7.5,        81.25
    288,        11.25,        81.25
    289,          15.,        81.25
    290,        18.75,        81.25
    291,         22.5,        81.25
    292,        26.25,        81.25
    293,         3.75,          85.
    294,          7.5,          85.
    295,        11.25,          85.
    296,          15.,          85.
    297,        18.75,          85.
    298,         22.5,          85.
    299,        26.25,          85.
    300,         3.75,        88.75
    301,          7.5,        88.75
    302,        11.25,        88.75
    303,          15.,        88.75
    304,        18.75,        88.75
    305,         22.5,        88.75
    306,        26.25,        88.75
    307,         3.75,         92.5
    308,          7.5,         92.5
    309,        11.25,         92.5
    310,          15.,         92.5
    311,        18.75,         92.5
    312,         22.5,         92.5
    313,        26.25,         92.5
    314,         3.75,        96.25
    315,          7.5,        96.25
    316,        11.25,        96.25
    317,          15.,        96.25
    318,        18.75,        96.25
    319,         22.5,        96.25
    320,        26.25,        96.25
    321,        26.25,   66.1111145
    322,         22.5,   66.1111145
    323,        18.75,   66.1111145
    324,          15.,   66.1111145
    325,        11.25,   66.1111145
    326,          7.5,   66.1111145
    327,         3.75,   66.1111145
    328,        26.25,   62.2222214
    329,         22.5,   62.2222214
    330,        18.75,   62.2222214
    331,          15.,   62.2222214
    332,        11.25,   62.2222214
    333,          7.5,   62.2222214
    334,         3.75,   62.2222214
    335,        26.25,   58.3333321
    336,         22.5,   58.3333321
    337,        18.75,   58.3333321
    338,          15.,   58.3333321
    339,        11.25,   58.3333321
    340,          7.5,   58.3333321
    341,         3.75,   58.3333321
    342,        26.25,   54.4444427
    343,         22.5,   54.4444427
    344,        18.75,   54.4444427
    345,          15.,   54.4444427
    346,        11.25,   54.4444427
    347,          7.5,   54.4444427
    348,         3.75,   54.4444427
    349,        26.25,   50.5555573
    350,         22.5,   50.5555573
    351,        18.75,   50.5555573
    352,          15.,   50.5555573
    353,        11.25,   50.5555573
    354,          7.5,   50.5555573
    355,         3.75,   50.5555573
    356,        26.25,   46.6666679
    357,         22.5,   46.6666679
    358,        18.75,   46.6666679
    359,          15.,   46.6666679
    360,        11.25,   46.6666679
    361,          7.5,   46.6666679
    362,         3.75,   46.6666679
    363,        26.25,   42.7777786
    364,         22.5,   42.7777786
    365,        18.75,   42.7777786
    366,          15.,   42.7777786
    367,        11.25,   42.7777786
    368,          7.5,   42.7777786
    369,         3.75,   42.7777786
    370,        26.25,   38.8888893
    371,         22.5,   38.8888893
    372,        18.75,   38.8888893
    373,          15.,   38.8888893
    374,        11.25,   38.8888893
    375,          7.5,   38.8888893
    376,         3.75,   38.8888893
    377,        26.25,          35.
    378,         22.5,          35.
    379,        18.75,          35.
    380,          15.,          35.
    381,        11.25,          35.
    382,          7.5,          35.
    383,         3.75,          35.
    384,        26.25,   31.1111107
    385,         22.5,   31.1111107
    386,        18.75,   31.1111107
    387,          15.,   31.1111107
    388,        11.25,   31.1111107
    389,          7.5,   31.1111107
    390,         3.75,   31.1111107
    391,        26.25,   27.2222214
    392,         22.5,   27.2222214
    393,        18.75,   27.2222214
    394,          15.,   27.2222214
    395,        11.25,   27.2222214
    396,          7.5,   27.2222214
    397,         3.75,   27.2222214
    398,        26.25,    23.333334
    399,         22.5,    23.333334
    400,        18.75,    23.333334
    401,          15.,    23.333334
    402,        11.25,    23.333334
    403,          7.5,    23.333334
    404,         3.75,    23.333334
    405,        26.25,   19.4444447
    406,         22.5,   19.4444447
    407,        18.75,   19.4444447
    408,          15.,   19.4444447
    409,        11.25,   19.4444447
    410,          7.5,   19.4444447
    411,         3.75,   19.4444447
    412,        26.25,   15.5555553
    413,         22.5,   15.5555553
    414,        18.75,   15.5555553
    415,          15.,   15.5555553
    416,        11.25,   15.5555553
    417,          7.5,   15.5555553
    418,         3.75,   15.5555553
    419,        26.25,    11.666667
    420,         22.5,    11.666667
    421,        18.75,    11.666667
    422,          15.,    11.666667
    423,        11.25,    11.666667
    424,          7.5,    11.666667
    425,         3.75,    11.666667
    426,        26.25,   7.77777767
    427,         22.5,   7.77777767
    428,        18.75,   7.77777767
    429,          15.,   7.77777767
    430,        11.25,   7.77777767
    431,          7.5,   7.77777767
    432,         3.75,   7.77777767
    433,        26.25,   3.88888884
    434,         22.5,   3.88888884
    435,        18.75,   3.88888884
    436,          15.,   3.88888884
    437,        11.25,   3.88888884
    438,          7.5,   3.88888884
    439,         3.75,   3.88888884
*Element, type=CPE3
  1, 148,   8,   9
  2, 118,   9,  10
  3, 119, 118,  10
  4, 120, 119,  11
  5, 121, 120,  12
  6, 122, 121,  13
  7, 123, 122,  14
  8, 124, 123,  15
  9, 125, 124,  16
 10, 126, 125,  17
 11, 127, 126,  18
 12, 128, 127,  19
 13, 207, 206, 175
 14, 129, 128,  20
 15, 130, 129,  21
 16, 131, 130,  22
 17, 132,  24,  25
 18,  24,   2,  25
 19,  42,  41,   3
 20, 133,  41,  42
 21, 134,  40, 133
 22, 135,  39, 134
 23, 136,  38, 135
 24, 137,  37, 136
 25, 138,  36, 137
 26, 139,  35, 138
 27, 140,  34, 139
 28, 141,  33, 140
 29, 142,  32, 141
 30, 143,  31, 142
 31, 144,  30, 143
 32, 173, 130, 131
 33, 145,  29, 144
 34, 146,  28, 145
 35, 132, 131,  23
 36,  65,   1,   8
 37, 148,  65,   8
 38, 118,  63,  64
 39, 149, 118, 119
 40, 225, 201, 169
 41, 225, 150, 201
 42, 225, 177, 202
 43, 203, 152, 202
 44, 168, 124, 125
 45, 255, 241, 233
 46, 205, 154, 193
 47, 238, 206, 207
 48, 204, 158, 196
 49, 222, 188, 216
 50, 159,  53, 158
 51, 199, 160, 192
 52, 200, 161, 199
 53, 220, 219, 184
 54, 247, 230, 229
 55, 271, 166, 165
 56, 186, 167, 166
 57, 167, 134,  44
 58, 134,  43,  44
 59, 133,  42,  43
 60, 148, 118,  64
 61, 119,  10,  11
 62, 120,  11,  12
 63, 201, 119, 120
 64, 121,  12,  13
 65, 150,  62, 149
 66, 122,  13,  14
 67, 151,  61, 150
 68, 123,  14,  15
 69, 152,  60, 151
 70, 124,  15,  16
 71, 153,  59, 152
 72, 125,  16,  17
 73, 154,  58, 153
 74, 126,  17,  18
 75, 155,  57, 154
 76, 127,  18,  19
 77, 156,  56, 155
 78, 128,  19,  20
 79, 157,  55, 156
 80, 129,  20,  21
 81, 214, 212, 171
 82, 130,  21,  22
 83, 246, 221, 223
 84, 131,  22,  23
 85, 259, 237, 246
 86, 132,  23,  24
 87, 243, 221, 214
 88, 244,  25,  26
 89, 147,  27, 146
 90, 134, 133,  43
 91, 133,  40,  41
 92, 167, 135, 134
 93, 134,  39,  40
 94, 186, 135, 167
 95, 135,  38,  39
 96, 186, 179, 136
 97, 136,  37,  38
 98, 164,  48, 163
 99, 137,  36,  37
100, 163,  49, 162
101, 138,  35,  36
102, 162,  50, 161
103, 139,  34,  35
104, 161,  51, 160
105, 140,  33,  34
106, 160,  52, 159
107, 141,  32,  33
108, 158,  54, 157
109, 142,  31,  32
110, 234, 191, 231
111, 143,  30,  31
112, 173, 171, 130
113, 144,  29,  30
114, 244, 215, 132
115, 145,  28,  29
116, 180, 146, 145
117, 146,  27,  28
118, 244, 147, 215
119, 147,  26,  27
120, 148,  64,  65
121, 148,   9, 118
122, 149,  62,  63
123, 149,  63, 118
124, 169, 120, 121
125, 150,  61,  62
126, 235, 213, 211
127, 151,  60,  61
128, 170, 122, 123
129, 152,  59,  60
130, 178, 124, 168
131, 153,  58,  59
132, 236, 197, 234
133, 154,  57,  58
134, 208, 174, 206
135, 155,  56,  57
136, 175, 128, 172
137, 156,  55,  56
138, 224, 181, 222
139, 157,  54,  55
140, 188, 142, 182
141, 158,  53,  54
142, 218, 189, 217
143, 159,  52,  53
144, 189, 140, 183
145, 160,  51,  52
146, 219, 217, 183
147, 161,  50,  51
148, 184, 183, 139
149, 162,  49,  50
150, 190, 137, 179
151, 163,  48,  49
152, 230, 220, 195
153, 164,  47,  48
154, 165,  46,  47
155, 165,  47, 164
156, 166,  45,  46
157, 166,  46, 165
158, 167,  44,  45
159, 167,  45, 166
160, 255, 233, 235
161, 176, 125, 126
162, 201, 150, 149
163, 177, 121, 122
164, 213, 177, 170
165, 178, 170, 123
166, 172, 129, 171
167, 171, 129, 130
168, 197, 156, 191
169, 172, 128, 129
170, 215, 173, 131
171, 187, 147, 146
172, 174, 126, 127
173, 175, 174, 127
174, 175, 127, 128
175, 212, 207, 172
176, 176, 168, 125
177, 176, 126, 174
178, 177, 169, 121
179, 177, 122, 170
180, 178, 123, 124
181, 209, 176, 208
182, 271, 190, 179
183, 179, 137, 136
184, 185, 145, 144
185, 265, 250, 251
186, 181, 144, 143
187, 188, 143, 142
188, 182, 142, 141
189, 189, 141, 140
190, 183, 140, 139
191, 184, 139, 138
192, 190, 184, 138
193, 220, 190, 198
194, 185, 180, 145
195, 185, 144, 181
196, 271, 186, 166
197, 186, 136, 135
198, 243, 215, 187
199, 187, 146, 180
200, 218, 182, 189
201, 188, 181, 143
202, 199, 161, 160
203, 189, 182, 141
204, 190, 138, 137
205, 271, 198, 190
206, 191, 156, 155
207, 205, 155, 154
208, 192, 160, 159
209, 204, 159, 158
210, 193, 154, 153
211, 203, 153, 152
212, 194, 163, 162
213, 200, 162, 161
214, 195, 164, 163
215, 195, 163, 194
216, 196, 158, 157
217, 197, 196, 157
218, 197, 157, 156
219, 242, 241, 209
220, 198, 165, 164
221, 198, 164, 195
222, 249, 218, 217
223, 254, 248, 249
224, 249, 248, 218
225, 200, 194, 162
226, 201, 149, 119
227, 201, 120, 169
228, 202, 152, 151
229, 225, 202, 151
230, 211, 170, 178
231, 203, 193, 153
232, 251, 216, 248
233, 204, 192, 159
234, 210, 168, 209
235, 205, 191, 155
236, 206, 174, 175
237, 207, 175, 172
238, 212, 172, 171
239, 258, 236, 253
240, 260, 240, 238
241, 208, 176, 174
242, 241, 210, 209
243, 209, 168, 176
244, 235, 203, 213
245, 210, 178, 168
246, 213, 203, 202
247, 211, 178, 210
248, 214, 171, 173
249, 237, 214, 221
250, 213, 202, 177
251, 213, 170, 211
252, 243, 214, 173
253, 221, 187, 180
254, 215, 131, 132
255, 215, 147, 187
256, 228, 226, 192
257, 216, 188, 182
258, 217, 189, 183
259, 247, 219, 230
260, 249, 217, 247
261, 218, 216, 182
262, 219, 183, 184
263, 230, 219, 220
264, 220, 184, 190
265, 220, 198, 195
266, 223, 180, 185
267, 224, 223, 185
268, 232, 228, 204
269, 222, 181, 188
270, 223, 221, 180
271, 224, 185, 181
272, 250, 245, 224
273, 245, 223, 224
274, 225, 151, 150
275, 225, 169, 177
276, 226, 199, 192
277, 228, 192, 204
278, 227, 200, 199
279, 227, 199, 226
280, 232, 204, 196
281, 251, 250, 222
282, 229, 194, 200
283, 229, 200, 227
284, 230, 195, 194
285, 230, 194, 229
286, 231, 191, 205
287, 233, 231, 205
288, 236, 196, 197
289, 261, 260, 238
290, 233, 205, 193
291, 235, 233, 193
292, 234, 197, 191
293, 266, 242, 252
294, 235, 193, 203
295, 255, 211, 210
296, 240, 206, 238
297, 236, 232, 196
298, 239, 212, 237
299, 237, 212, 214
300, 253, 234, 252
301, 239, 238, 207
302, 239, 207, 212
303, 259, 246, 245
304, 266, 252, 231
305, 240, 208, 206
306, 242, 209, 208
307, 266, 233, 241
308, 242, 208, 240
309, 262, 242, 240
310, 243, 173, 215
311, 243, 187, 221
312, 244, 132,  25
313, 244,  26, 147
314, 250, 224, 222
315, 270, 267, 260
316, 246, 237, 221
317, 246, 223, 245
318, 249, 229, 227
319, 247, 217, 219
320, 256, 254, 226
321, 248, 216, 218
322, 249, 247, 229
323, 254, 249, 227
324, 251, 222, 216
325, 257, 256, 228
326, 264, 248, 254
327, 265, 251, 264
328, 267, 262, 260
329, 252, 234, 231
330, 258, 257, 232
331, 253, 236, 234
332, 254, 227, 226
333, 256, 226, 228
334, 255, 235, 211
335, 255, 210, 241
336, 257, 228, 232
337, 269, 264, 256
338, 258, 232, 236
339, 269, 268, 263
340, 267, 253, 262
341, 261, 239, 259
342, 259, 239, 237
343, 263, 259, 245
344, 262, 253, 252
345, 261, 238, 239
346, 270, 259, 263
347, 270, 268, 267
348, 262, 252, 242
349, 262, 240, 260
350, 263, 245, 250
351, 269, 263, 265
352, 264, 251, 248
353, 264, 254, 256
354, 269, 256, 257
355, 265, 263, 250
356, 266, 231, 233
357, 266, 241, 242
358, 267, 258, 253
359, 270, 260, 261
360, 268, 257, 258
361, 268, 258, 267
362, 269, 265, 264
363, 269, 257, 268
364, 270, 261, 259
365, 270, 263, 268
366, 271, 179, 186
367, 271, 165, 198
*Element, type=CPE4
368,   4,  66, 272,  93
369,  66,  67, 273, 272
370,  67,  68, 274, 273
371,  68,  69, 275, 274
372,  69,  70, 276, 275
373,  70,  71, 277, 276
374,  71,  72, 278, 277
375,  72,   1,  73, 278
376,  93, 272, 279,  92
377, 272, 273, 280, 279
378, 273, 274, 281, 280
379, 274, 275, 282, 281
380, 275, 276, 283, 282
381, 276, 277, 284, 283
382, 277, 278, 285, 284
383, 278,  73,  74, 285
384,  92, 279, 286,  91
385, 279, 280, 287, 286
386, 280, 281, 288, 287
387, 281, 282, 289, 288
388, 282, 283, 290, 289
389, 283, 284, 291, 290
390, 284, 285, 292, 291
391, 285,  74,  75, 292
392,  91, 286, 293,  90
393, 286, 287, 294, 293
394, 287, 288, 295, 294
395, 288, 289, 296, 295
396, 289, 290, 297, 296
397, 290, 291, 298, 297
398, 291, 292, 299, 298
399, 292,  75,  76, 299
400,  90, 293, 300,  89
401, 293, 294, 301, 300
402, 294, 295, 302, 301
403, 295, 296, 303, 302
404, 296, 297, 304, 303
405, 297, 298, 305, 304
406, 298, 299, 306, 305
407, 299,  76,  77, 306
408,  89, 300, 307,  88
409, 300, 301, 308, 307
410, 301, 302, 309, 308
411, 302, 303, 310, 309
412, 303, 304, 311, 310
413, 304, 305, 312, 311
414, 305, 306, 313, 312
415, 306,  77,  78, 313
416,  88, 307, 314,  87
417, 307, 308, 315, 314
418, 308, 309, 316, 315
419, 309, 310, 317, 316
420, 310, 311, 318, 317
421, 311, 312, 319, 318
422, 312, 313, 320, 319
423, 313,  78,  79, 320
424,  87, 314,  86,   6
425, 314, 315,  85,  86
426, 315, 316,  84,  85
427, 316, 317,  83,  84
428, 317, 318,  82,  83
429, 318, 319,  81,  82
430, 319, 320,  80,  81
431, 320,  79,   5,  80
432,   1,  72, 321,   8
433,  72,  71, 322, 321
434,  71,  70, 323, 322
435,  70,  69, 324, 323
436,  69,  68, 325, 324
437,  68,  67, 326, 325
438,  67,  66, 327, 326
439,  66,   4,  94, 327
440,   8, 321, 328,   9
441, 321, 322, 329, 328
442, 322, 323, 330, 329
443, 323, 324, 331, 330
444, 324, 325, 332, 331
445, 325, 326, 333, 332
446, 326, 327, 334, 333
447, 327,  94,  95, 334
448,   9, 328, 335,  10
449, 328, 329, 336, 335
450, 329, 330, 337, 336
451, 330, 331, 338, 337
452, 331, 332, 339, 338
453, 332, 333, 340, 339
454, 333, 334, 341, 340
455, 334,  95,  96, 341
456,  10, 335, 342,  11
457, 335, 336, 343, 342
458, 336, 337, 344, 343
459, 337, 338, 345, 344
460, 338, 339, 346, 345
461, 339, 340, 347, 346
462, 340, 341, 348, 347
463, 341,  96,  97, 348
464,  11, 342, 349,  12
465, 342, 343, 350, 349
466, 343, 344, 351, 350
467, 344, 345, 352, 351
468, 345, 346, 353, 352
469, 346, 347, 354, 353
470, 347, 348, 355, 354
471, 348,  97,  98, 355
472,  12, 349, 356,  13
473, 349, 350, 357, 356
474, 350, 351, 358, 357
475, 351, 352, 359, 358
476, 352, 353, 360, 359
477, 353, 354, 361, 360
478, 354, 355, 362, 361
479, 355,  98,  99, 362
480,  13, 356, 363,  14
481, 356, 357, 364, 363
482, 357, 358, 365, 364
483, 358, 359, 366, 365
484, 359, 360, 367, 366
485, 360, 361, 368, 367
486, 361, 362, 369, 368
487, 362,  99, 100, 369
488,  14, 363, 370,  15
489, 363, 364, 371, 370
490, 364, 365, 372, 371
491, 365, 366, 373, 372
492, 366, 367, 374, 373
493, 367, 368, 375, 374
494, 368, 369, 376, 375
495, 369, 100, 101, 376
496,  15, 370, 377,  16
497, 370, 371, 378, 377
498, 371, 372, 379, 378
499, 372, 373, 380, 379
500, 373, 374, 381, 380
501, 374, 375, 382, 381
502, 375, 376, 383, 382
503, 376, 101, 102, 383
504,  16, 377, 384,  17
505, 377, 378, 385, 384
506, 378, 379, 386, 385
507, 379, 380, 387, 386
508, 380, 381, 388, 387
509, 381, 382, 389, 388
510, 382, 383, 390, 389
511, 383, 102, 103, 390
512,  17, 384, 391,  18
513, 384, 385, 392, 391
514, 385, 386, 393, 392
515, 386, 387, 394, 393
516, 387, 388, 395, 394
517, 388, 389, 396, 395
518, 389, 390, 397, 396
519, 390, 103, 104, 397
520,  18, 391, 398,  19
521, 391, 392, 399, 398
522, 392, 393, 400, 399
523, 393, 394, 401, 400
524, 394, 395, 402, 401
525, 395, 396, 403, 402
526, 396, 397, 404, 403
527, 397, 104, 105, 404
528,  19, 398, 405,  20
529, 398, 399, 406, 405
530, 399, 400, 407, 406
531, 400, 401, 408, 407
532, 401, 402, 409, 408
533, 402, 403, 410, 409
534, 403, 404, 411, 410
535, 404, 105, 106, 411
536,  20, 405, 412,  21
537, 405, 406, 413, 412
538, 406, 407, 414, 413
539, 407, 408, 415, 414
540, 408, 409, 416, 415
541, 409, 410, 417, 416
542, 410, 411, 418, 417
543, 411, 106, 107, 418
544,  21, 412, 419,  22
545, 412, 413, 420, 419
546, 413, 414, 421, 420
547, 414, 415, 422, 421
548, 415, 416, 423, 422
549, 416, 417, 424, 423
550, 417, 418, 425, 424
551, 418, 107, 108, 425
552,  22, 419, 426,  23
553, 419, 420, 427, 426
554, 420, 421, 428, 427
555, 421, 422, 429, 428
556, 422, 423, 430, 429
557, 423, 424, 431, 430
558, 424, 425, 432, 431
559, 425, 108, 109, 432
560,  23, 426, 433,  24
561, 426, 427, 434, 433
562, 427, 428, 435, 434
563, 428, 429, 436, 435
564, 429, 430, 437, 436
565, 430, 431, 438, 437
566, 431, 432, 439, 438
567, 432, 109, 110, 439
568,  24, 433, 117,   2
569, 433, 434, 116, 117
570, 434, 435, 115, 116
571, 435, 436, 114, 115
572, 436, 437, 113, 114
573, 437, 438, 112, 113
574, 438, 439, 111, 112
575, 439, 110,   7, 111
*Elset, elset=Set-elems, generate
   1,  575,    1
*Nset, nset=Set-nodes, generate
   1,  439,    1
*Nset, nset=Set-fixed-nodes
   2,   3,   7,  25,  26,  27,  28,  29,  30,  31,  32,  33,  34,  35,  36,  37
  38,  39,  40,  41, 111, 112, 113, 114, 115, 116, 117
*Nset, nset=Set-load1-nodes
   7, 103, 104, 105, 106, 107, 108, 109, 110
*Nset, nset=Set-load2-nodes, generate
  94,  102,    1
*Nset, nset=Set-load3-nodes
  4,  6, 87, 88, 89, 90, 91, 92, 93
** Section: Section-1
*Solid Section, elset=Set-elems, material=Material-1
200.,
*End Part
**  
**
** ASSEMBLY
**
*Assembly, name=Assembly
**  
*Instance, name=Part-1-1, part=Part-1
*End Instance
**  
*End Assembly
** 
** MATERIALS
** 
*Material, name=Material-1
*Elastic
1000., 0.3
** ----------------------------------------------------------------
** 
** STEP: Step-1
** 
*Step, name=Step-1, nlgeom=NO, inc=10
*Static, direct
0.1, 1., 
** 
** BOUNDARY CONDITIONS
** 
** Name: BC-1 Type: Displacement/Rotation
*Boundary
Part-1-1.Set-fixed-nodes, 1, 1
Part-1-1.Set-fixed-nodes, 2, 2
** 
** LOADS
** 
** Name: Load-1   Type: Concentrated force
*Cload
Part-1-1.Set-load1-nodes, 1, 30.
** Name: Load-2   Type: Concentrated force
*Cload
Part-1-1.Set-load2-nodes, 1, 20.
** Name: Load-3   Type: Concentrated force
*Cload
Part-1-1.Set-load3-nodes, 1, 10.
** 
** OUTPUT REQUESTS
** 
*Restart, write, frequency=0
** 
** FIELD OUTPUT: F-Output-1
** 
*Output, field
*Node Output
CF, RF, U
*Element Output, directions=YES
E, S
*Output, history, frequency=0
*End Step
